time,creep_rate,creep_rate_diff,creep_rate_max_diff,creep_rate_soln,effective_strain_avg,rhoi,rhoi_diff,rhoi_in,rhoi_max_diff,rhoi_soln,rhom,rhom_diff,rhom_in,rhom_max_diff,rhom_soln,temperature,vmJ2_in,vonmises_stress
0,0,0,0,0,0,0,0,543591308705.96,0,0,0,0,8106677181727.7,0,0,0,25.793409428435,0
1e-05,3.0063886180756e-08,8.708381574689e-07,8.708381574689e-07,3.006386e-08,0,996528363269.29,5.3345651055358e-05,996528363269.29,5.3345651055358e-05,996475205650.68,8254792097882.1,0.00042739523934785,8254792101409.5,0.00042739523934785,8251265546269,925.00882260689,19.00937303106,19009373.031114
2e-05,3.5487870224058e-09,8.3904490930495e-07,8.708381574689e-07,3.54879e-09,0,387731956233,2.6166020670413e-06,387731956232.99,5.3345651055358e-05,387730941695.41,8948834035415.4,8.6071497556989e-05,8948834036186.5,0.00042739523934785,8948063862158.6,845.5104595687,37.739305333016,37739305.333096
3e-05,2.3141942221684e-09,2.4966863874975e-06,2.4966863874975e-06,2.3142e-09,0,415999020619.87,1.8930134077391e-06,415999020619.86,5.3345651055358e-05,415998233129.64,6190950103217.3,6.7211275819557e-05,6190950103634,0.00042739523934785,6190534029527.2,928.92425196504,20.611013519215,20611013.519245
4e-05,1.2133035547045e-09,5.3121588757429e-06,5.3121588757429e-06,1.21331e-09,0,302826978826.68,4.7845513217064e-07,302826978826.66,5.3345651055358e-05,302826833937.63,6000620301131.4,4.2994683163973e-05,6000620301389.9,0.00042739523934785,6000362317454.7,939.72708426807,11.452083806731,11452083.806727
5e-05,1.8734047677908e-08,9.4362547188764e-07,5.3121588757429e-06,1.873403e-08,0,473498006740.52,2.0660753855545e-05,473498006740.52,5.3345651055358e-05,473488224116.87,9438965873697.7,0.00030271795494876,9438965876555.1,0.00042739523934785,9436109393959.3,890.90674426564,24.05899157781,24058991.577849
6e-05,6.9687402828462e-11,3.7267492297894e-05,3.7267492297894e-05,6.969e-11,0,753891703721.48,5.8949766855475e-08,753891703721.37,5.3345651055358e-05,753891659279.75,5446671341504.3,3.2517263821559e-06,5446671341522.6,0.00042739523934785,5446653630477,844.03036905812,20.889607914211,20889607.914227
7e-05,2.7814719625378e-09,7.0557575049181e-07,3.7267492297894e-05,2.78147e-09,0,510757650221.64,3.2057690750962e-06,510757650221.64,5.3345651055358e-05,510756012855.81,6822302331915,7.9026794578575e-05,6822302332454.8,0.00042739523934785,6821763229833.5,942.84576489167,7.3104593610943,7310459.3611059
8e-05,1.1212229034817e-09,2.5895735751642e-06,3.7267492297894e-05,1.12122e-09,0,725543174339.38,1.5192899410582e-06,725543174339.36,5.3345651055358e-05,725542072030.6,5879936082196.7,3.8390258002814e-05,5879936082423,0.00042739523934785,5879710358599,899.19166569252,27.10512703183,27105127.031894
9e-05,2.7032522716499e-08,1.5801916262562e-06,3.7267492297894e-05,2.703248e-08,0,332949380343.79,1.63686833419e-05,332949380343.79,5.3345651055358e-05,332943930490.02,9751898496526.5,0.00040335835166214,9751898500459.4,0.00042739523934785,9747966572797.6,945.93158744416,4.899493935291,4899493.9354319
0.0001,2.5658874276918e-09,1.0025013507642e-06,3.7267492297894e-05,2.56589e-09,0,632399752470.99,3.1038870280664e-06,632399752470.98,5.3345651055358e-05,632397789579.69,6334666310465.2,6.7557670001265e-05,6334666310893.8,0.00042739523934785,6334238384078.8,898.07150549102,37.064088479273,37064088.479776
0.00011,4.9018757004673e-08,1.1629168648613e-06,3.7267492297894e-05,4.90187e-08,0,650369716025.73,6.6246029198332e-05,650369716025.73,6.6246029198332e-05,650326634468.52,9604990815371,0.00058496549505685,9604990820987.3,0.00058496549505685,9599375511922.4,897.1237682212,31.387151128686,31387151.128683
0.00012,1.963167933108e-08,1.0528339555073e-06,3.7267492297894e-05,1.96317e-08,0,372804109747.89,1.3093387207963e-05,372804109747.89,6.6246029198332e-05,372799228543.24,7240719405110.9,0.00029492533840358,7240719407246.5,0.00058496549505685,7238584563109.1,936.28522373957,35.687251921813,35687251.921806
0.00013,6.2120905339729e-09,8.5957047477984e-08,3.7267492297894e-05,6.21209e-09,0,918224682357.93,9.9311839759131e-06,918224682357.92,6.6246029198332e-05,918215563390.24,7066532396175.4,0.00013845059704214,7066532397154.3,0.00058496549505685,7065554165982.7,921.33717224557,15.692921966113,15692921.966163
0.00014,7.6057750634695e-10,3.2786203242677e-06,3.7267492297894e-05,7.6058e-10,0,532598387006.89,9.3218682511646e-07,532598387006.87,6.6246029198332e-05,532597890526.16,9318703591586.8,3.1154532298348e-05,9318703591878.1,0.00058496549505685,9318413280779.3,858.36047700692,4.0802988983112,4080298.8983167
0.00015,5.99549854291e-08,7.5772071757454e-07,3.7267492297894e-05,5.995494e-08,0,572434123662.67,7.6438423464752e-05,572434123662.67,7.6438423464752e-05,572390371045.1,9499906469577.5,0.00069932156388293,9499906476217.3,0.00069932156388293,9493267622817.1,945.10224221346,10.395718239399,10395718.239403
0.00016,7.2500714721883e-11,9.8582328732536e-06,3.7267492297894e-05,7.25e-11,0,480148021580.79,7.0391837401176e-08,480148021580.72,7.6438423464752e-05,480147987782.29,8203527822019.4,5.2603644411709e-06,8203527822063.4,0.00069932156388293,8203484668700.4,821.94171479056,6.0550665525995,6055066.5526181
0.00017,5.3862646364023e-09,9.9579071722234e-07,3.7267492297894e-05,5.38627e-09,0,646530341640.3,7.0696372351369e-06,646530341640.3,7.6438423464752e-05,646525770937.64,7753364651839.5,0.00011880316481266,7753364652761.3,0.00069932156388293,7752443637000.4,883.37862691602,34.387399294217,34387399.294551
0.00018,1.572611016409e-08,1.2822062211116e-06,3.7267492297894e-05,1.572609e-08,0,421564447412.11,1.4247455875452e-05,421564447412.1,7.6438423464752e-05,421558441276.81,9998650159685.4,0.00027600502868522,9998650162445.3,0.00069932156388293,9995891243436,884.13180142896,16.713008026908,16713008.026978
0.00019,7.2956180265761e-11,5.2353813589169e-05,5.2353813589169e-05,7.296e-11,0,870531252865.1,3.5126074821657e-08,870531252864.95,7.6438423464752e-05,870531222286.75,5590530783805.6,1.7749713442164e-06,5590530783816,0.00069932156388293,5590520860791.2,800.2407360863,41.61257847455,41612578.474773
0.0002,6.5948265695059e-09,9.9616151170299e-07,5.2353813589169e-05,6.59482e-09,0,467119567145.12,6.9333408558603e-06,467119567145.11,7.6438423464752e-05,467116328468.39,9272196154493.4,0.00014010663565292,9272196155793.3,0.00069932156388293,9270897240271.6,861.6114901232,28.227941801942,28227941.80198
0.00021,2.4777147436098e-10,5.9505225619234e-06,5.2353813589169e-05,2.4777e-10,0,772090147561.24,3.1743446413805e-07,772090147561.18,7.6438423464752e-05,772089902473.29,7447371175749.9,1.1213325433544e-05,7447371175834.2,0.00069932156388293,7447287666889.7,816.1745952416,29.083186471028,29083186.471061
0.00022,3.2181417384155e-10,1.2969893888808e-05,5.2353813589169e-05,3.2181e-10,0,747331940609.8,3.9403189129639e-07,747331940609.75,7.6438423464752e-05,747331646137.3,5921344277030.4,1.3129669937413e-05,5921344277108.7,0.00069932156388293,5921266532755.2,854.1887695984,36.359343172404,36359343.172418
0.00023,4.8667126829514e-08,9.6224211529565e-07,5.2353813589169e-05,4.866708e-08,0,549372858438.79,5.8073047395469e-05,549372858438.79,7.6438423464752e-05,549340956535.38,9562080363190.3,0.0005708280133647,9562080368646.4,0.00069932156388293,9556625173827.8,891.63871570809,39.293080486042,39293080.486033
0.00024,3.7248242807059e-09,1.5354510405055e-06,5.2353813589169e-05,3.72483e-09,0,762416469156.1,5.0549233876928e-06,762416469156.09,7.6438423464752e-05,762412615218.74,5527213825537,8.6352035743964e-05,5527213826014.8,0.00069932156388293,5526736580582.2,911.95591994883,47.247376915931,47247376.915933
0.00025,1.7381188083739e-09,6.8558335884356e-07,5.2353813589169e-05,1.73812e-09,0,437505591540.9,1.5536799694134e-06,437505591540.89,7.6438423464752e-05,437504911798.28,6999065793051.4,5.3494531930421e-05,6999065793426.5,0.00069932156388293,6998691401330.7,889.10782094375,28.501986001388,28501986.001446
0.00026,4.0962996468174e-11,7.3155961276635e-05,7.3155961276635e-05,4.096e-11,0,691607956835.73,3.2183341222059e-08,691607956835.61,7.6438423464752e-05,691607934577.47,6700567922665.4,2.2612742508526e-06,6700567922681.2,0.00069932156388293,6700552770878,813.64151551001,12.997881561878,12997881.561907
0.00027,5.3992682915287e-09,2.1685245716058e-06,7.3155961276635e-05,5.39928e-09,0,797594991041.34,7.5582086538162e-06,797594991041.33,7.6438423464752e-05,797588962697.54,5803695610152.4,0.00011335074363492,5803695610810.8,0.00069932156388293,5803037831498.9,917.14083710668,43.16516932682,43165169.327238
0.00028,4.1913080931689e-09,4.549487041805e-07,7.3155961276635e-05,4.19131e-09,0,452588934893.36,3.7049571101172e-06,452588934893.36,7.6438423464752e-05,452587258076.98,6575143848196.2,9.5433487422135e-05,6575143848824.3,0.00069932156388293,6574516419166.2,905.56649625693,40.84010845388,40840108.453888
0.00029,8.8807259128531e-11,3.0862194223969e-05,7.3155961276635e-05,8.881e-11,0,964705251426.66,1.0157612383727e-07,964705251426.53,7.6438423464752e-05,964705153435.65,6102348145876.5,4.8056162402343e-06,6102348145906.4,0.00069932156388293,6102318820474.1,832.58271560131,18.335912675798,18335912.675921
0.0003,1.8191959148852e-10,2.2455556028462e-06,7.3155961276635e-05,1.8192e-10,0,313830041576.48,8.3615600945957e-08,313830041576.44,7.6438423464752e-05,313830015335.4,7512388462621.8,1.0390624935986e-05,7512388462700.6,0.00069932156388293,7512310405021.9,851.32401523393,11.993905684484,11993905.684491
0.00031,6.944817162315e-10,2.4712468279506e-06,7.3155961276635e-05,6.9448e-10,0,784715408911.16,1.0378290858168e-06,784715408911.14,7.6438423464752e-05,784714594511.53,5305438263564.7,2.8407623779936e-05,5305438263715.9,0.00069932156388293,5305287552951.8,914.36790319278,18.309465461436,18309465.461422
0.00032,1.650660175872e-08,1.9240047900294e-06,7.3155961276635e-05,1.650657e-08,0,981645176489.65,2.790218787934e-05,981645176489.65,7.6438423464752e-05,981617787205.73,9542264635476.2,0.00027495429023658,9542264638100.2,0.00069932156388293,9539641670071.7,863.36557152866,26.345265094914,26345265.094911
0.00033,9.109533644812e-10,7.2840945841661e-06,7.3155961276635e-05,9.1096e-10,0,457313009246.33,8.8221537717856e-07,457313009246.31,7.6438423464752e-05,457312605798.12,5216601514919.1,3.2447835479949e-05,5216601515088.9,0.00069932156388293,5216432252983.6,919.71864835092,29.663880493479,29663880.493509
0.00034,1.033781662153e-10,1.7738292661833e-05,7.3155961276635e-05,1.0338e-10,0,732247901696.1,5.7077753357708e-08,732247901695.98,7.6438423464752e-05,732247859901.03,6094853018438.8,3.1785670726295e-06,6094853018458.8,0.00069932156388293,6094833645601.3,802.09471341076,45.686945027348,45686945.027384
0.00035,6.1452392011596e-09,1.2999335569267e-07,7.3155961276635e-05,6.14524e-09,0,503709352641.78,7.3512519194741e-06,503709352641.78,7.6438423464752e-05,503705649774.65,9072417477245.4,0.00013876955384638,9072417478505.1,0.00069932156388293,9071158676603,902.31156877114,8.137127691677,8137127.6926631
0.00036,4.2221438096085e-09,9.0229326417482e-07,7.3155961276635e-05,4.22214e-09,0,553657281953.23,5.5661338728979e-06,553657281953.23,7.6438423464752e-05,553654200239.83,9921318836811.2,0.00010452641319365,9921318837849.1,0.00069932156388293,9920281905325.8,833.79965978766,21.560798081559,21560798.08159
0.00037,3.0758483878311e-09,5.241376966004e-07,7.3155961276635e-05,3.07585e-09,0,429511843055.24,2.5135238814953e-06,429511843055.23,7.6438423464752e-05,429510763469.68,7555290749912.5,7.6246169783083e-05,7555290750489.2,0.00069932156388293,7554714731850.4,865.14455214619,48.719781607197,48719781.60746
0.00038,2.7401760641221e-10,8.7350842591066e-06,7.3155961276635e-05,2.7402e-10,0,604920611895.18,3.0606017049868e-07,604920611895.13,7.6438423464752e-05,604920426753.13,6949835150997,1.2119975275595e-05,6949835151081.9,0.00069932156388293,6949750920187.7,836.33933906447,30.223503493202,30223503.493263
0.00039,6.6148662809715e-10,5.0974358660857e-06,7.3155961276635e-05,6.6149e-10,0,906246588980.49,1.0731187402412e-06,906246588980.46,7.6438423464752e-05,906245616471.34,8548948469087.4,2.7782060058646e-05,8548948469325.7,0.00069932156388293,8548710968285.8,842.71283307009,8.714054908026,8714054.9081272
0.0004,7.949412844812e-09,1.6158215678082e-06,7.3155961276635e-05,7.9494e-09,0,909840254795.33,1.2259752710221e-05,909840254795.33,7.6438423464752e-05,909829100515.55,9693409600418.2,0.00015887945897722,9693409601959,0.00069932156388293,9691869761394,817.16030042804,45.539938065769,45539938.066683
0.00041,1.2638961301815e-09,3.0618075155661e-06,7.3155961276635e-05,1.2639e-09,0,487542341174.63,1.2510174274252e-06,487542341174.62,7.6438423464752e-05,487541731251.43,9012146618194.9,4.0036069916723e-05,9012146618556.6,0.00069932156388293,9011785821707.7,808.01866316077,41.948509622944,41948509.622942
0.00042,1.4176868301144e-09,2.2359511614066e-06,7.3155961276635e-05,1.41769e-09,0,973351947722.56,2.2184389286249e-06,973351947722.54,7.6438423464752e-05,973349788405.49,7732502478267.5,4.4391450299619e-05,7732502478611.5,0.00069932156388293,7732159236505,840.32728497452,33.556905807974,33556905.807955
0.00043,2.1269183127228e-08,7.932960561309e-07,7.3155961276635e-05,2.12692e-08,0,612173619053.69,2.6320535410374e-05,612173619053.69,7.6438423464752e-05,612157506740.36,6768141064713.1,0.00030677739735863,6768141066789.5,0.00069932156388293,6766065388782.8,938.46597543141,38.639242252974,38639242.252998
0.00044,3.6139667320757e-09,1.8627975131308e-06,7.3155961276635e-05,3.61396e-09,0,807378025296.15,5.7864587757613e-06,807378025296.15,7.6438423464752e-05,807373353463.53,8816812030811,9.4911700218172e-05,8816812031648.6,0.00069932156388293,8815975291607,877.09623595346,10.74339873656,10743398.736843
0.00045,2.1470493775525e-09,2.8990825848642e-07,7.3155961276635e-05,2.14705e-09,0,864982960973.18,3.285991271299e-06,864982960973.18,7.6438423464752e-05,864980118656.06,8030991195522.8,6.1414375583937e-05,8030991196016.8,0.00069932156388293,8030498007502,850.1544257142,30.636208585211,30636208.585314
0.00046,1.212717737898e-10,1.4626781588822e-05,7.3155961276635e-05,1.2127e-10,0,620240339964.52,1.4468538432016e-07,620240339964.44,7.6438423464752e-05,620240250224.82,6417244550328.3,7.0408563075939e-06,6417244550374.2,0.00069932156388293,6417199367749.7,853.13706021033,14.208470948087,14208470.948113
0.00047,3.5623672311721e-10,9.1985256760922e-06,7.3155961276635e-05,3.5624e-10,0,353958025939.84,2.0215948360292e-07,353958025939.8,7.6438423464752e-05,353957954383.88,7660084075553.7,1.4984474694743e-05,7660084075669.2,0.00069932156388293,7659969294937.6,830.93463771684,32.063094531204,32063094.53125
0.00048,7.8265808824081e-09,1.3904441019894e-06,7.3155961276635e-05,7.82657e-09,0,564643362604.55,9.3381244008288e-06,564643362604.55,7.6438423464752e-05,564638089943.82,9707950688223.4,0.00015577091623599,9707950689736.4,0.00069932156388293,9706438707372.6,824.20637393387,49.747819169497,49747819.169545
0.00049,2.2943174794077e-10,7.6186234021193e-06,7.3155961276635e-05,2.2943e-10,0,700813554498.05,2.7634131948085e-07,700813554497.99,7.6438423464752e-05,700813360834.36,5258417931689.7,9.7667580908547e-06,5258417931741.6,0.00069932156388293,5258366574495.4,868.57903501122,33.11077940573,33110779.40576
0.0005,4.3667586011178e-10,9.4803705654489e-06,7.3155961276635e-05,4.3668e-10,0,345733390784.56,2.7556286096493e-07,345733390784.53,7.6438423464752e-05,345733295513.3,8164327269945.1,2.0888697314001e-05,8164327270116.5,0.00069932156388293,8164156731346.3,859.13865049123,10.055423665289,10055423.665435
0.00051,1.4123500003679e-08,1.4163420545355e-06,7.3155961276635e-05,1.412348e-08,0,528748589486.19,1.6836111299517e-05,528748589486.19,7.6438423464752e-05,528739687565.96,9822551803727.3,0.00025122351641423,9822551806195.3,0.00069932156388293,9820084767500.5,876.06231158625,20.197735375703,20197735.375707
0.00052,1.5918400766963e-11,0.00010045433647355,0.00010045433647355,1.592e-11,0,718296573347.07,1.3589230450232e-08,718296573346.93,7.6438423464752e-05,718296563585.97,6263985649201,1.195313105049e-06,6263985649209.1,0.00069932156388293,6263978161785.8,827.88281966717,4.6779693937998,4677969.3938294
0.00053,1.6901496169222e-08,1.5483399994459e-06,0.00010045433647355,1.690147e-08,0,898053609532.36,2.6937186339881e-05,898053609532.36,7.6438423464752e-05,898029419146.56,9376956788139.3,0.00027138677656653,9376956790684.4,0.00069932156388293,9374412696495.4,860.32648370629,35.264322224179,35264322.224607
0.00054,2.5511625344299e-11,6.3714006232586e-05,0.00010045433647355,2.551e-11,0,576342969074.55,2.7723005718259e-08,576342969074.44,7.6438423464752e-05,576342953096.59,5670528728040.8,2.1718517522751e-06,5670528728053.6,0.00069932156388293,5670516412519.8,870.12203512462,3.7793256380599,3779325.6385407
0.00055,1.095922245968e-07,1.1369140470365e-06,0.00010045433647355,1.095921e-07,0,969998042869.76,0.00017520608262802,969998042869.76,0.00017520608262802,969828123083.49,8894638536775.1,0.0010117564087387,8894638545766.2,0.0010117564087387,8885648425035.3,913.89155493689,42.541362684192,42541362.685306
0.00056,5.5426299603989e-12,0.00047472209365999,0.00047472209365999,5.54e-12,0,879840807630,5.062017902992e-09,879840807629.83,0.00017520608262802,879840803176.23,5462780521398.1,3.9696185437496e-07,5462780521400.8,0.0010117564087387,5462778352883.4,826.375394816,2.4591757547077,2459175.7560014
0.00057,5.1147672666112e-10,6.3997397316172e-06,0.00047472209365999,5.1148e-10,0,781123072093.76,7.2670777941778e-07,781123072093.72,0.00017520608262802,781122504445.96,6242160836709.2,2.1778359284908e-05,6242160836845.8,0.0010117564087387,6242024895648.4,874.0182302769,23.21534176185,23215341.761921
0.00058,5.0958483154431e-10,1.0142380519688e-05,0.00047472209365999,5.0959e-10,0,796484902670.08,7.5000322357962e-07,796484902670.05,0.00017520608262802,796484305304.29,5366045327121.7,2.1390838994497e-05,5366045327237,0.0010117564087387,5365930545365.3,894.95842908915,24.608027925869,24608027.925861
0.00059,1.8044347294691e-08,9.5845567904815e-07,0.00047472209365999,1.804433e-08,0,939187824580.14,3.1300131301879e-05,939187824580.14,0.00017520608262802,939158428798,8769160033386.6,0.00029452873484058,8769160035969.5,0.0010117564087387,8766578024252.3,894.27631673302,22.761248489255,22761248.489221
0.0006,3.4332368003711e-11,6.8977678724146e-05,0.00047472209365999,3.433e-11,0,395875402669.83,1.4746894414107e-08,395875402669.75,0.00017520608262802,395875396831.9,6872312661368.1,1.6668234355431e-06,6872312661380.2,0.0010117564087387,6872301206455.4,810.57918715326,13.701392709916,13701392.709929
0.00061,3.4781847199169e-10,4.3931007738258e-06,0.00047472209365999,3.4782e-10,0,948157660076.53,5.6785876734178e-07,948157660076.48,0.00017520608262802,948157121657.2,7845884771427.2,1.7130094546666e-05,7845884771562.4,0.0010117564087387,7845750372981.5,834.71662260999,12.314348567905,12314348.567907
0.00062,1.6106400645069e-08,5.8082037095328e-07,0.00047472209365999,1.610641e-08,0,658090682222.78,2.0398361850794e-05,658090682222.78,0.00017520608262802,658077258524.74,7187907992901.9,0.00025054792324417,7187907994703.1,0.0010117564087387,7186107528584.4,916.91933811742,40.3816844792,40381684.479514
0.00063,8.0895225275073e-11,5.9020085625872e-05,0.00047472209365999,8.09e-11,0,440466345670.11,1.4170681739468e-08,440466345670.03,0.00017520608262802,440466339428.4,5169279961081.5,1.5169031345829e-06,5169279961089.8,0.0010117564087387,5169272119796.4,818.96734512544,46.563873382282,46563873.382315
0.00064,1.7701255116001e-10,1.4412519140324e-05,0.00047472209365999,1.7701e-10,0,712353269610.13,1.3574584140586e-07,712353269610.04,0.00017520608262802,712353172911.15,5957550295339.8,6.192387701212e-06,5957550295377.3,0.0010117564087387,5957513404107.1,820.13638363091,49.515077014519,49515077.014547
0.00065,6.6903072721023e-09,4.0773860868459e-07,0.00047472209365999,6.69031e-09,0,991203150805.59,1.103931655467e-05,991203150805.59,0.00017520608262802,991192208721.03,7144454803745.8,0.00014255240293373,7144454804764.9,0.0010117564087387,7143436489709,904.07439931532,25.223563810963,25223563.811139
0.00066,3.0391005048451e-08,1.6292808580712e-07,0.00047472209365999,3.039101e-08,0,665527557113.94,3.9572495598699e-05,665527557113.94,0.00017520608262802,665501221569.78,7634587541168.3,0.00040077674591646,7634587544227.6,0.0010117564087387,7631529001808.6,926.58867467856,36.669636514367,36669636.514369
0.00067,3.6887309963124e-11,7.2920489997233e-05,0.00047472209365999,3.689e-11,0,835100713506.29,3.7074099545197e-08,835100713506.15,0.00017520608262802,835100682545.69,6496627473809.4,2.3999245620509e-06,6496627473825.7,0.0010117564087387,6496611882431,823.07494128495,9.0753210450192,9075321.045321
0.00068,1.7612708083247e-08,1.0882784111785e-07,0.00047472209365999,1.761271e-08,0,929168520057.44,2.6979812320704e-05,929168520057.43,0.00017520608262802,929143451941.48,7258537942470.4,0.00026939407394012,7258537944426,0.0010117564087387,7256583061996.4,909.63577392974,39.627904933208,39627904.933642
0.00069,8.2281750917171e-08,1.1049506177055e-06,0.00047472209365999,8.228166e-08,0,594166520186.07,9.8304956710344e-05,594166520186.07,0.00017520608262802,594108116413.4,9878488256509.4,0.00082388925955426,9878488264642.5,0.0010117564087387,9870356176068,886.95936911132,47.619561051751,47619561.051752
0.0007,1.0440626077269e-08,3.7571779697337e-07,0.00047472209365999,1.044063e-08,0,823342752388.54,1.5780010804371e-05,823342752388.53,0.00017520608262802,823329760236.02,6675073060897.3,0.00019663571309391,6675073062210.2,0.0010117564087387,6673760761191,936.71598808201,22.542013096508,22542013.096705
0.00071,8.3712467825454e-09,8.1021991817029e-07,0.00047472209365999,8.37124e-09,0,315258661212.86,3.7138902390331e-06,315258661212.86,0.00017520608262802,315257490381.14,9182346493679.3,0.00015774136434787,9182346495128.4,0.0010117564087387,9180898286257.7,855.87877966105,44.429230127935,44429230.12806
0.00072,2.5556458236221e-10,2.1198254056435e-05,0.00047472209365999,2.5557e-10,0,324618123474.71,1.1886933420078e-07,324618123474.66,0.00017520608262802,324618084887.57,5774012398812.8,1.1633221183343e-05,5774012398880.5,0.0010117564087387,5773945229230.8,879.88427312803,26.761369760149,26761369.760215
0.00073,3.8282695375477e-11,7.0412107554399e-05,0.00047472209365999,3.828e-11,0,826025719904.95,1.4838014935398e-08,826025719904.79,0.00017520608262802,826025707648.36,5059319959611.3,1.2362586911526e-06,5059319959618,0.0010117564087387,5059313704990.7,829.61243260751,19.700332115346,19700332.115331
0.00074,2.3276687878531e-10,1.3409007580252e-05,0.00047472209365999,2.3277e-10,0,816769629391.68,2.3646512243034e-07,816769629391.6,0.00017520608262802,816769436254.19,5130178084571.5,8.3873154399989e-06,5130178084615,0.0010117564087387,5130135056510.5,848.02750654833,48.088909746202,48088909.746494
0.00075,2.4970644175131e-07,6.8781337629443e-07,0.00047472209365999,2.4970627e-07,0,682052384079.93,0.00032837130955106,682052384079.93,0.00032837130955106,681828491165.39,9132013874505.4,0.0018678833081782,9132013891532,0.0018678833081782,9114988140303.9,949.97551563858,35.026216482418,35026216.482449
0.00076,9.9518768834232e-08,1.1219760007847e-07,0.00047472209365999,9.951878e-08,0,588375672047.57,0.00011427373849721,588375672047.57,0.00032837130955106,588308443842.3,7935857134329.4,0.00093889935766217,7935857141774.1,0.0018678833081782,7928413152313.4,947.9902933056,41.181801888171,41181801.888163
0.00077,7.8925565564415e-08,7.0502063262928e-08,0.00047472209365999,7.892556e-08,0,399434535834.61,6.4603506171395e-05,399434535834.61,0.00032837130955106,399408732630.08,8675202319872.9,0.00081321389878166,8675202326922.8,0.0018678833081782,8668153257167.4,933.62612580057,38.203554478957,38203554.478964
0.00078,3.420947179445e-11,1.5440092067625e-05,0.00047472209365999,3.421e-11,0,499471259214.19,2.3479897003639e-08,499471259214.1,0.00032837130955106,499471247486.66,5024023151237.3,1.9643262276186e-06,5024023151247.7,0.0018678833081782,5024013282436.2,871.03595830894,9.4877474462158,9487747.4465357
0.00079,1.0035324428948e-09,2.4343016780005e-06,0.00047472209365999,1.00353e-09,0,381428444098.7,7.7074699536211e-07,381428444098.69,0.00032837130955106,381428150114.1,7969492767070.9,3.806129855428e-05,7969492767375,0.0018678833081782,7969189449372,872.18167067396,15.223392771382,15223392.771379
0.0008,1.0975501707626e-10,4.5398357724097e-05,0.00047472209365999,1.0976e-10,0,930024231132.07,1.1610751023827e-07,930024231131.95,0.00032837130955106,930024123149.29,6548324217989,5.0969022780332e-06,6548324218023,0.0018678833081782,6548290841990.5,813.33915926357,27.682804257866,27682804.257879
0.00081,2.1202805308765e-08,2.5038037699118e-07,0.00047472209365999,2.12028e-08,0,885717032652.31,3.1210033719997e-05,885717032652.31,0.00032837130955106,885689390256.58,7360123944583,0.00030383549851795,7360123946819.3,0.0018678833081782,7357888356906,907.04327396928,44.950950672839,44950950.672893
0.00082,1.3228879926237e-11,8.4661660085162e-05,0.00047472209365999,1.323e-11,0,368078990355.22,3.6575742851882e-09,368078990355.15,0.00032837130955106,368078989008.94,7894230125105.6,1.2342517089741e-06,7894230125116.2,0.0018678833081782,7894220381650.6,806.84752073998,3.388593082697,3388593.0841598
0.00083,5.2832620099293e-10,7.1905950259199e-06,0.00047472209365999,5.2833e-10,0,623263074437.31,6.4205753721962e-07,623263074437.28,0.00032837130955106,623262674266.81,8462208324147.5,2.121988665789e-05,8462208324327.9,0.0018678833081782,8462028760856.3,810.18743651227,31.066901630711,31066901.631004
0.00084,3.454096985491e-09,8.7273356096198e-07,0.00047472209365999,3.4541e-09,0,957132142516.28,5.0710931669356e-06,957132142516.28,0.00032837130955106,957127288834.63,6398246554423.3,8.2378188102138e-05,6398246554951,0.0018678833081782,6397719521881.1,881.4828722002,46.761714656806,46761714.656834
0.00085,2.6625739138109e-10,9.7972617493967e-06,0.00047472209365999,2.6626e-10,0,850362913357.17,4.2595439731268e-07,850362913357.12,0.00032837130955106,850362551141.5,8318847796418.9,1.4407640724747e-05,8318847796539.5,0.0018678833081782,8318727943175.4,840.50906527839,5.5357094319308,5535709.4333905
0.00086,2.0637797952089e-08,3.8531688937353e-07,0.00047472209365999,2.063779e-08,0,735077997741.41,3.2393114984754e-05,735077997741.41,0.00032837130955106,735054187046.61,8406463211696.1,0.00033009042420938,8406463214470.9,0.0018678833081782,8403689234351.8,922.33322200909,17.488470545732,17488470.545728
0.00087,3.550879330271e-10,5.8209831330668e-06,0.00047472209365999,3.5509e-10,0,580143605696.55,4.3070927262121e-07,580143605696.51,0.00032837130955106,580143355823.42,5742953706944.1,1.7374559321708e-05,5742953707044.4,0.0018678833081782,5742853927387.8,901.72396240466,13.426730144918,13426730.144899
0.00088,1.6918962840718e-10,2.1963048766672e-06,0.00047472209365999,1.6919e-10,0,518705972698.53,2.1554371021323e-07,518705972698.48,0.00032837130955106,518705860894.75,8070220782063.2,1.0885924368204e-05,8070220782151.8,0.0018678833081782,8070132931206.5,866.57345554469,2.6525846952661,2652584.6952754
0.00089,8.9382475628025e-09,1.3914562267809e-06,0.00047472209365999,8.93826e-09,0,490391116030.59,9.0233015089214e-06,490391116030.59,0.00032837130955106,490386691123.62,6627734093480.5,0.00016706328745346,6627734094588.3,0.0018678833081782,6626627027384.6,929.82057281006,34.095965900368,34095965.900847
0.0009,1.6794580376482e-08,1.2132786785908e-06,0.00047472209365999,1.679456e-08,0,755636340432.97,2.6276479322683e-05,755636340432.97,0.00032837130955106,755616485492.01,9216904821356.2,0.00028072220839532,9216904823943.8,0.0018678833081782,9214318157614.1,887.53288825613,22.011871568083,22011871.568091
0.00091,1.391039288061e-10,2.8244472337015e-05,0.00047472209365999,1.391e-10,0,636031020087.17,1.9254122929518e-07,636031020087.11,0.00032837130955106,636030897625,7483406297196.7,8.7058209305898e-06,7483406297262.6,0.0018678833081782,7483341148568.7,847.51215094092,7.246304058181,7246304.0582166
0.00092,1.9294170276038e-08,1.0222746592582e-06,0.00047472209365999,1.929419e-08,0,360745562772.87,1.1390779744611e-05,360745562772.87,0.00032837130955106,360741453646.42,7012725325782.8,0.00028320277104313,7012725327769,0.0018678833081782,7010739864826,931.68944570385,43.960050405008,43960050.405907
0.00093,7.036666198445e-08,4.5454002532604e-07,0.00047472209365999,7.036663e-08,0,675181821486.48,9.9178340395011e-05,675181821486.48,0.00032837130955106,675114864714.62,8636606988358.6,0.00078239558083503,8636606995111.4,0.0018678833081782,8629855027921.5,941.71675525142,24.10156144656,24101561.446642
0.00094,3.4987701171688e-09,3.3488576742669e-08,0.00047472209365999,3.49877e-09,0,335998311150.68,1.9414136501301e-06,335998311150.67,0.00032837130955106,335997658840.23,8739487064927.1,9.1289945518172e-05,8739487065725.7,0.0018678833081782,8738689310456,908.53236170057,6.4363284337413,6436328.4337818
0.00095,2.4065609499488e-10,1.6226232545106e-05,0.00047472209365999,2.4066e-10,0,693344999858.6,3.1954362742776e-07,693344999858.55,0.00032837130955106,693344778304.69,8586694989023.6,1.2764700684233e-05,8586694989134.1,0.0018678833081782,8586585383831.3,804.74585655088,16.88889595935,16888895.95936
0.00096,1.5244029928826e-09,1.9633184401868e-06,0.00047472209365999,1.5244e-09,0,857197051828.01,2.4180990958631e-06,857197051828,0.00032837130955106,857194979045.61,8960777904188.1,5.0808746364199e-05,8960777904644.3,0.0018678833081782,8960322641427.7,838.86623948629,14.699066627663,14699066.627654
0.00097,5.5230254939393e-10,4.6159585895169e-06,0.00047472209365999,5.523e-10,0,840762348612.56,7.9578067701318e-07,840762348612.53,0.00032837130955106,840761679550.67,5600314140998.9,2.1538757677345e-05,5600314141120,0.0018678833081782,5600193519787.7,878.62870508125,32.258942238965,32258942.239009
0.00098,5.426352819944e-08,3.3181769638239e-08,0.00047472209365999,5.426353e-08,0,892495575386.47,8.0771237373123e-05,892495575386.47,0.00032837130955106,892423493236.66,7348850090622.3,0.00059573735313791,7348850094998.4,0.0018678833081782,7344474712696.8,933.38224862626,43.299047260985,43299047.260986
0.00099,3.0716497608084e-09,7.7870709482799e-08,0.00047472209365999,3.07165e-09,0,357064618378.01,1.8448535482027e-06,357064618378,0.00032837130955106,357063959647.29,6691045509243.5,8.2320789732245e-05,6691045509794.9,0.0018678833081782,6690494742432.6,923.05572192323,21.557850475773,21557850.475897
0.001,6.13132277199e-11,5.2645896261297e-05,0.00047472209365999,6.131e-11,0,793516478290.09,2.3369807643699e-08,793516478289.95,0.00032837130955106,793516459745.76,5258705255388,1.0956978772519e-06,5258705255394.3,0.0018678833081782,5258699493442.1,803.66623023758,38.614121362991,38614121.363062
0.00101,3.644857607819e-10,1.1630547055681e-05,0.00047472209365999,3.6449e-10,0,811639908851.81,5.0555888384937e-07,811639908851.77,0.00032837130955106,811639498520.25,5951270268462.3,1.5792759580623e-05,5951270268556.9,0.0018678833081782,5951176282966.1,864.93146256611,28.358302807676,28358302.807686
0.00102,4.746754053386e-10,9.67949229678e-06,0.00047472209365999,4.7468e-10,0,970514485470.45,7.4694209450644e-07,970514485470.41,0.00032837130955106,970513760552.87,7168357030616.9,2.0835467236306e-05,7168357030767,0.0018678833081782,7168207677660.7,844.68015561821,21.183121043658,21183121.043667
0.00103,7.2205337805557e-11,6.4564387799793e-05,0.00047472209365999,7.221e-11,0,933351252911.46,5.0360370042776e-08,933351252911.31,0.00032837130955106,933351205907.55,6020863739298.6,2.6252097356391e-06,6020863739315,0.0018678833081782,6020847933310,805.51967881658,31.796894218289,31796894.218291
0.00104,1.7343840808682e-10,9.1784662370386e-06,0.00047472209365999,1.7344e-10,0,329619267688.57,9.0364435564495e-08,329619267688.52,0.00032837130955106,329619237902.71,6738161345686.7,9.4094438297884e-06,6738161345750.8,0.0018678833081782,6738097943932.6,859.48019041834,16.844857836231,16844857.83625
0.00105,3.102812604006e-10,4.062139355106e-06,0.00047472209365999,3.1028e-10,0,377340811898.48,2.304877058454e-07,377340811898.45,0.00032837130955106,377340724926.08,6190910449130.3,1.5945273156916e-05,6190910449229.6,0.0018678833081782,6190811734946.1,903.25684231904,9.3490640714096,9349064.0713893
0.00106,7.1297586104433e-10,5.8051497471596e-06,0.00047472209365999,7.1298e-10,0,769899439270.15,1.0068667198569e-06,769899439270.12,0.00032837130955106,769898664084.81,5828036570121.8,2.7630065934806e-05,5828036570283.5,0.0018678833081782,5827875545536.3,890.54163324991,25.249942127332,25249942.12735
0.00107,3.3970787446071e-10,6.2569229216998e-06,0.00047472209365999,3.3971e-10,0,857071675330.67,4.7126312653647e-07,857071675330.62,0.00032837130955106,857071271424.58,6442470371998.2,1.4898822246222e-05,6442470372094.8,0.0018678833081782,6442374388207.3,848.55626707472,28.626395933136,28626395.933145
0.00108,5.1398523808325e-11,2.8719682393149e-05,0.00047472209365999,5.14e-11,0,611362217470.53,1.1743287931391e-08,611362217470.41,0.00032837130955106,611362210291.13,5229519530129.5,7.8799305176656e-07,5229519530134.2,0.0018678833081782,5229515409307.7,808.43409288533,33.945151885526,33945151.885561
0.00109,3.8442037537876e-09,9.7648083966742e-07,0.00047472209365999,3.8442e-09,0,437973729817.99,3.3555439933028e-06,437973729817.99,0.00032837130955106,437972260182.81,9224979236065.3,9.0084982518811e-05,9224979236897.2,0.0018678833081782,9224148278828.8,827.01948918346,46.688505307891,46688505.307914
0.0011,1.3254835900483e-08,4.4515722158553e-07,0.00047472209365999,1.325483e-08,0,546659167132.34,1.595750837648e-05,546659167132.33,0.00032837130955106,546650443953.3,8613818713281.5,0.00022203566521735,8613818715194.5,0.0018678833081782,8611906562879.1,878.1354983443,42.249177684224,42249177.684208
0.00111,1.5131611056187e-09,7.3066873526287e-07,0.00047472209365999,1.51316e-09,0,753152940402.04,2.115347119739e-06,753152940402.03,0.00032837130955106,753151347225.51,6615768975885.7,5.0101507475264e-05,6615768976217.8,0.0018678833081782,6615437532492.7,898.40062284376,18.620645624168,18620645.624324
0.00112,2.3784885624132e-10,4.8087394783849e-06,0.00047472209365999,2.3785e-10,0,861158932296.73,3.2397487092503e-07,861158932296.67,0.00032837130955106,861158653302.97,7710466220472.6,1.1070794535958e-05,7710466220558.7,0.0018678833081782,7710380860430.3,806.66468385398,27.598186228801,27598186.22881
0.00113,4.258140015232e-10,9.397438304969e-06,0.00047472209365999,4.2581e-10,0,945421872114.04,6.2178758269039e-07,945421872113.99,0.00032837130955106,945421284262.82,6121136444589.2,1.779018562756e-05,6121136444698.7,0.0018678833081782,6121027550372.8,857.60815281094,30.099878647829,30099878.647801
0.00114,1.064287863793e-10,1.1402994489515e-05,0.00047472209365999,1.0643e-10,0,759060200652.07,9.6705705750568e-08,759060200651.96,0.00032837130955106,759060127246.62,5612221467165.9,4.5454906092142e-06,5612221467192,0.0018678833081782,5612195956981.9,839.54661299119,29.001798814879,29001798.814862
0.00115,1.1010995829807e-08,5.2945347955452e-07,0.00047472209365999,1.101099e-08,0,801848364845.58,1.7387772362563e-05,801848364845.58,0.00032837130955106,801834422731.17,8749018900545.1,0.0002042297107802,8749018902332.4,0.0018678833081782,8747232455790.5,880.61124230334,26.585197068086,26585197.06808
0.00116,5.2257771298206e-11,4.2646417795084e-05,0.00047472209365999,5.226e-11,0,886889041954.19,8.5983689254302e-08,886889041954.07,0.00032837130955106,886888965696.21,6252915885137,4.1441364276462e-06,6252915885163.6,0.0018678833081782,6252889972307.9,861.46300774409,3.9820881492367,3982088.1493745
0.00117,7.4990210871981e-09,1.4497869340294e-07,0.00047472209365999,7.49902e-09,0,516788586098.34,9.1092891332094e-06,516788586098.34,0.00032837130955106,516783878564.57,9161774987247.3,0.00015994675131389,9161774988713.4,0.0018678833081782,9160309825449.7,912.24599617651,6.2695239424967,6269523.9424737
0.00118,3.6622652627305e-09,1.2935336468807e-06,0.00047472209365999,3.66227e-09,0,591162415158.33,4.1776167210568e-06,591162415158.32,0.00032837130955106,591159945518.66,7452955104236.3,8.6481419213494e-05,7452955104881.5,0.0018678833081782,7452310617837.6,866.35641499481,49.079582561913,49079582.563564
0.00119,7.5305836012596e-08,4.7821809842884e-07,0.00047472209365999,7.53058e-08,0,647004980795.28,0.0001063448366612,647004980795.28,0.00032837130955106,646936182472.62,8863062133195.7,0.0008367426318801,8863062140606.5,0.0018678833081782,8855652231440.5,944.37610875991,20.606572918616,20606572.918945
0.0012,1.3262376962554e-08,1.2789996723776e-06,0.00047472209365999,1.326236e-08,0,698622877428.01,1.8299718408692e-05,698622877428,0.00032837130955106,698610093060.03,9553294391383.3,0.00022532811186111,9553294393536.4,0.0018678833081782,9551142250533.9,845.82622094678,43.358743259715,43358743.259865
0.00121,2.8319187553496e-08,9.7296304444861e-07,0.00047472209365999,2.831916e-08,0,310405649498.25,1.2889313360962e-05,310405649498.25,0.00032837130955106,310401648634.13,9742041696554.6,0.00040933318832938,9742041700541.7,0.0018678833081782,9738055587212.9,935.34976851039,7.4927970939469,7492797.0947858
0.00122,3.3443259353289e-08,1.1767194888191e-06,0.00047472209365999,3.344322e-08,0,615608725222.21,4.1865754958378e-05,615608725222.21,0.00032837130955106,615582953377.12,9774141647622.5,0.00043803299947052,9774141651903,0.0018678833081782,9769862125611.2,872.2736587611,40.132487100457,40132487.101026
0.00123,2.4305085803588e-09,5.8409190069903e-07,0.00047472209365999,2.43051e-09,0,907076724599.16,3.7282625359395e-06,907076724599.15,0.00032837130955106,907073342791.6,8566329821016,6.4346386972602e-05,8566329821568,0.0018678833081782,8565778644108.7,825.55918864331,39.619581059824,39619582.375205
0.00124,7.9747950299266e-11,2.5701576604441e-05,0.00047472209365999,7.975e-11,0,765531960394.33,8.4925287408134e-08,765531960394.22,0.00032837130955106,765531895381.31,7052697516281.1,4.3416606022209e-06,7052697516312.4,0.0018678833081782,7052666895995.1,812.15295566147,18.007310915313,18007310.91541
0.00125,1.2205605140344e-07,2.5728707002113e-07,0.00047472209365999,1.2205602e-07,0,808304952967.67,0.00016667435833383,808304952967.67,0.00032837130955106,808170251709.54,7921374742175.5,0.0010829280927734,7921374750745.2,0.0018678833081782,7912805742544.2,948.7626844966,39.436412349308,39436412.349439
0.00126,7.4178685342162e-09,1.1504957253459e-06,0.00047472209365999,7.41786e-09,0,702448739890.33,1.1086784915401e-05,702448739890.33,0.00032837130955106,702440952078.58,9116992793953.3,0.00015633052139026,9116992795379.2,0.0018678833081782,9115567752493.8,869.83621648835,21.991188880403,21991188.880424
0.00127,1.8909757402027e-09,2.2526929229079e-06,0.00047472209365999,1.89098e-09,0,499713159264.66,2.0600408901654e-06,499713159264.65,0.00032837130955106,499712129837.24,7653063127357.2,5.7437481655316e-05,7653063127797.5,0.0018678833081782,7652623579930.7,874.01859198489,27.278913416691,27278913.416669
0.00128,9.2908031270874e-10,3.3657891617233e-07,0.00047472209365999,9.2908e-10,0,414340222947.18,7.5429733300213e-07,414340222947.16,0.00032837130955106,414339910411.69,6211140174392.6,3.4962518656245e-05,6211140174610.4,0.0018678833081782,6210923024880.5,908.03010582131,19.324764733717,19324764.733706
0.00129,4.8664506083488e-10,1.01493170082e-05,0.00047472209365999,4.8665e-10,0,450545622225.62,4.6035435361832e-07,450545622225.59,0.00032837130955106,450545414815.08,8321711185983.7,2.1949938689203e-05,8321711186167.2,0.0018678833081782,8321528528942.7,838.13024891306,17.618370551987,17618370.552011
0.0013,1.5819640854973e-08,5.4045016190058e-08,0.00047472209365999,1.581964e-08,0,419936494084.32,1.4691569234179e-05,419936494084.32,0.00032837130955106,419930324648.88,8837603092649.2,0.00025882373407664,8837603094936.8,0.0018678833081782,8835316303091.9,892.21703122794,32.969287048547,32969287.048578
0.00131,6.4611298302234e-09,2.6276610249829e-08,0.00047472209365999,6.46113e-09,0,504837095395.88,7.5783742301977e-06,504837095395.88,0.00032837130955106,504833269580.44,9067537740186.1,0.00014032638892625,9067537741459.2,0.0018678833081782,9066265503886.9,870.67697615549,24.528996036541,24528996.036575
0.00132,1.4555309785537e-09,6.7230057682893e-07,0.00047472209365999,1.45553e-09,0,584005116008.23,1.6006518259075e-06,584005116008.22,0.00032837130955106,584004181220.87,7219980826965.4,4.3437579997453e-05,7219980827279.8,0.0018678833081782,7219667222092.9,851.77707214368,47.448311023329,47448311.023463
0.00133,3.0221166915341e-10,5.5231574331855e-06,0.00047472209365999,3.0221e-10,0,623452170653.94,3.1033736488054e-07,623452170653.89,0.00032837130955106,623451977173.49,6319621263167.9,1.1924725887214e-05,6319621263243.8,0.0018678833081782,6319545904315.2,840.63742898416,41.031215070979,41031215.070971
0.00134,8.7449720209513e-09,2.3109870869324e-07,0.00047472209365999,8.74497e-09,0,824904047225.7,1.4490926550722e-05,824904047225.7,0.00032837130955106,824892093774.96,8381130376946.1,0.00018000917348935,8381130378455.3,0.0018678833081782,8379621968121.5,942.3116324919,3.7172887156496,3717288.7165963
0.00135,4.1959164786074e-10,3.9273117609726e-06,0.00047472209365999,4.1959e-10,0,533576670952.32,4.0301255240158e-07,533576670952.28,0.00032837130955106,533576455914.31,7013840702101,1.5950661195837e-05,7013840702213.6,0.0018678833081782,7013728828488.7,832.85211305537,42.599111975811,42599111.976947
0.00136,4.038927773442e-11,1.7882287197248e-05,0.00047472209365999,4.039e-11,0,943576249948.48,2.8637684717292e-08,943576249948.31,0.00032837130955106,943576222926.64,5464410863425.8,9.3325819913969e-07,5464410863431.4,0.0018678833081782,5464405763724.3,801.4078208888,25.601990721121,25601990.721155
0.00137,2.1299512611242e-09,5.9209101091748e-07,0.00047472209365999,2.12995e-09,0,927611727944.95,3.4624743630798e-06,927611727944.94,0.00032837130955106,927608516124.24,7952981467217.6,6.4722743457875e-05,7952981467733.1,0.0018678833081782,7952466761751.5,899.90153742658,5.570431038647,5570431.0387141
0.00138,5.7521059766215e-09,1.0390329615277e-06,0.00047472209365999,5.7521e-09,0,527853872851.54,7.3104389057128e-06,527853872851.54,0.00032837130955106,527850014036.26,8795368243455.7,0.00013263987759502,8795368244623,0.0018678833081782,8794201781607.8,896.44913615345,11.871545697318,11871545.697306
0.00139,2.9892754236164e-10,8.2214510529681e-06,0.00047472209365999,2.9893e-10,0,578091556218.63,3.9918330605086e-07,578091556218.59,0.00032837130955106,578091325454.22,7519620859600.1,1.6871163241774e-05,7519620859727.7,0.0018678833081782,7519493996989.4,895.91640467638,2.191442541237,2191442.5412394
0.0014,4.7147366763528e-11,5.5848069397818e-05,0.00047472209365999,4.715e-11,0,597201402143.15,4.8023547074513e-08,597201402143.05,0.00032837130955106,597201373463.42,5075377942758.3,2.9858173023918e-06,5075377942773.9,0.0018678833081782,5075362788652.2,877.52680852928,9.132807449541,9132807.4495412
0.00141,1.5241470069535e-08,6.5154200997632e-07,0.00047472209365999,1.524148e-08,0,495382283060.99,1.6240242493583e-05,495382283060.99,0.00032837130955106,495374238063.24,6949865425958.6,0.00025131612720451,6949865427705.5,0.0018678833081782,6948119251537,940.87064684752,29.722442243589,29722442.243688
0.00142,7.1268617787367e-11,1.9394031608045e-05,0.00047472209365999,7.127e-11,0,466336062889.97,1.9362731620703e-08,466336062889.88,0.00032837130955106,466336053860.43,5170583874385.8,1.9315475908633e-06,5170583874396.3,0.0018678833081782,5170573887176.3,835.51668323087,34.682241997389,34682241.997386
0.00143,1.0718696012819e-10,2.8359658680503e-05,0.00047472209365999,1.0719e-10,0,556635030842.28,9.3825995161952e-08,556635030842.21,0.00032837130955106,556634978615.45,7357340151957.8,5.2235633212363e-06,7357340151997,0.0018678833081782,7357301720626.4,809.02567003521,24.666458436728,24666458.436752
0.00144,1.4951841652087e-08,1.1049387520996e-07,0.00047472209365999,1.495184e-08,0,633323371651.34,1.8753078284644e-05,633323371651.34,0.00032837130955106,633311495111.29,7849741344328.6,0.00023804229738369,7849741346197.5,0.0018678833081782,7847873218558,889.29251876969,49.633711193387,49633711.193561
0.00145,8.4369659240955e-10,4.0388650632759e-06,0.00047472209365999,8.437e-10,0,430475500325.55,7.3850843956342e-07,430475500325.54,0.00032837130955106,430475182416,6564911623819.5,3.3193677069293e-05,6564911624038,0.0018678833081782,6564693717496.1,905.20494135757,13.804117638216,13804117.639024
0.00146,4.8487960248322e-09,1.2425434304111e-06,0.00047472209365999,4.84879e-09,0,365521210069.04,3.4117066458238e-06,365521210069.03,0.00032837130955106,365519963022.15,9928304523058.9,0.00011008404903612,9928304524152.8,0.0018678833081782,9927211695399.9,822.89201608093,38.074627644791,38074627.644961
0.00147,7.1319358502025e-08,1.1921063510363e-07,0.00047472209365999,7.131935e-08,0,565759192237.94,8.536337581793e-05,565759192237.94,0.00032837130955106,565710901245.67,8471675810339.5,0.00073479664334475,8471675816560.8,0.0018678833081782,8465455422111,919.12415790293,47.63815604144,47638156.041437
0.00148,2.1990462689099e-09,1.6966826820033e-06,0.00047472209365999,2.19905e-09,0,708977383998.36,2.8456213029577e-06,708977383998.35,0.00032837130955106,708975366522.96,7575336295334.8,5.9821153712258e-05,7575336295788.7,0.0018678833081782,7574883157085.1,852.70687576631,43.769627292529,43769627.29252
0.00149,8.6688039181054e-12,0.00013795638922148,0.00047472209365999,8.67e-12,0,474435391603.49,8.0326265247735e-09,474435391603.4,0.00032837130955106,474435387792.52,5317930866399.1,4.0604591697668e-07,5317930866401.8,0.0018678833081782,5317928707075.9,836.23555861272,4.6458869154071,4645886.9165802
0.0015,1.5501790179455e-10,1.3535062922698e-05,0.00047472209365999,1.5502e-10,0,735030908291.29,2.2672401925819e-07,735030908291.22,0.00032837130955106,735030741642.16,8681679954983.9,9.5955102570791e-06,8681679955068.1,0.0018678833081782,8681596650634.2,815.24795114256,6.8209413945622,6820941.3945427
0.00151,3.8515089030237e-09,2.8481720981749e-07,0.00047472209365999,3.85151e-09,0,918447773792.56,5.6929265395487e-06,918447773792.56,0.00032837130955106,918442545166.62,5865180139629.9,8.8940669913491e-05,5865180140152.1,0.0018678833081782,5864658532971.2,900.84798024837,45.08596834291,45085968.343977
0.00152,4.1481321196639e-09,2.9217245160145e-06,0.00047472209365999,4.14812e-09,0,782971695400.72,6.6938976119344e-06,782971695400.71,0.00032837130955106,782966454303.44,9958861405861.6,0.00010542640674833,9958861406912.4,0.0018678833081782,9957811589566.6,833.22410827062,16.069075819866,16069075.820237
0.00153,1.2667972789526e-08,5.6918892570031e-07,0.00047472209365999,1.266798e-08,0,684520136802.25,1.6745557342871e-05,684520136802.24,0.00032837130955106,684508674322.99,6762681657416.1,0.0002167421491,6762681658882.2,0.0018678833081782,6761216216882.7,932.79739235587,30.585305972829,30585305.972852
0.00154,3.6204640733978e-10,9.9231051383755e-06,0.00047472209365999,3.6205e-10,0,542562864526.92,4.4342064156256e-07,542562864526.89,0.00032837130955106,542562623943.46,6836981540161.2,1.8075836243628e-05,6836981540285.4,0.0018678833081782,6836857958236.3,893.75108117979,6.4697691430644,6469769.1432378
0.00155,2.9925158846785e-09,1.3752026720328e-06,0.00047472209365999,2.99252e-09,0,687609097764.08,3.9107461617501e-06,687609097764.07,0.00032837130955106,687606408709.95,8247125113658.8,7.4547653862284e-05,8247125114274.4,0.0018678833081782,8246510355659.2,842.15374672357,44.63875509869,44638755.099733
0.00156,7.3268391468544e-10,5.34296751035e-06,0.00047472209365999,7.3268e-10,0,569260288190.22,7.9252460585685e-07,569260288190.2,0.00032837130955106,569259837037.8,6399343142601.6,2.5752407936656e-05,6399343142767,0.0018678833081782,6399178348350.3,862.79552506617,41.702623071756,41702623.071769
0.00157,1.8685728298998e-10,1.4540351166806e-05,0.00047472209365999,1.8686e-10,0,399112224994.61,1.4144026209486e-07,399112224994.57,0.00032837130955106,399112168544.08,8075469146422.3,1.0588804819594e-05,8075469146508.6,0.0018678833081782,8075383637761.1,830.91587064742,13.208048790327,13208048.790649
0.00158,5.9949140924877e-11,1.4329860263066e-05,0.00047472209365999,5.995e-11,0,521412048162.54,1.3897716114698e-08,521412048162.44,0.00032837130955106,521412040916.1,5671942607881.9,1.4251221844243e-06,5671942607890.5,0.0018678833081782,5671934524682.2,811.85764804881,34.247855153571,34247855.153706
0.00159,5.2973752364008e-10,4.6746704367215e-06,0.00047472209365999,5.2974e-10,0,636835554081.3,7.0216633530533e-07,636835554081.27,0.00032837130955106,636835106917.12,5589722369216,2.3758016713306e-05,5589722369349.3,0.0018678833081782,5589589571653.5,921.9243448764,9.9767989399127,9976798.9400549
0.0016,4.7452118630249e-10,2.5000052517064e-06,0.00047472209365999,4.7452e-10,0,349431991513.56,3.0877835863828e-07,349431991513.53,0.00032837130955106,349431883616.56,7870977543838.5,2.2064456181526e-05,7870977544012.9,0.0018678833081782,7870803878831.2,863.45023931103,12.319664307351,12319664.307356
0.00161,9.9330836192295e-08,1.1697518664017e-06,0.00047472209365999,9.933072e-08,0,788515955141.65,0.00014588233463432,788515955141.65,0.00032837130955106,788400941371.7,9496482655876.2,0.00095047907177579,9496482664894.8,0.0018678833081782,9487465018931.5,904.37052594024,40.501591682625,40501591.682972
0.00162,8.4184357081032e-09,1.6976874391972e-06,0.00047472209365999,8.41845e-09,0,979551545170.38,1.3232708201632e-05,979551545170.38,0.00032837130955106,979538583222.14,5133421424230.5,0.0001609543496961,5133421425057.1,0.0018678833081782,5132595310690,934.44105720515,48.207186323416,48207186.323413
0.00163,1.4963029614369e-09,1.9791732000293e-06,0.00047472209365999,1.4963e-09,0,442260173138.08,1.4616777287769e-06,442260173138.07,0.00032837130955106,442259526697.18,9511242976693.5,5.1740138416809e-05,9511242977186.5,0.0018678833081782,9510750889126,882.03477460236,2.8872615923854,2887261.5944766
0.00164,1.3391945901337e-08,3.0605425479016e-07,0.00047472209365999,1.339195e-08,0,731461707447.94,1.7940847828754e-05,731461707447.94,0.00032837130955106,731448584640.19,7115104973681.5,0.00022099857889771,7115104975254.3,0.0018678833081782,7113532893021.2,914.61107831894,37.87519103823,37875191.038984
0.00165,1.4614167290829e-09,2.2381773058252e-06,0.00047472209365999,1.46142e-09,0,481003238688.02,1.4478013300412e-06,481003238688.01,0.00032837130955106,481002542291.9,6517802085086.2,4.9207306857113e-05,6517802085407.6,0.0018678833081782,6517481377380.1,917.30443614092,14.155198811704,14155198.811857
0.00166,2.849599330743e-07,1.2039401927674e-06,0.00047472209365999,2.8495959e-07,0,963148027110.41,0.00044683996713016,963148027110.41,0.00044683996713016,962717846299.62,9035237938507.7,0.0020129201492992,9035237956659.3,0.0020129201492992,9017087261870.3,946.17840364424,35.192250945428,35192250.945533
0.00167,6.1775875605507e-11,6.6759379949296e-05,0.00047472209365999,6.178e-11,0,408529200325.84,1.0958079569479e-08,408529200325.76,0.00044683996713016,408529195849.14,5781983688221.5,1.648638147155e-06,5781983688231.6,0.0020129201492992,5781974155838.4,817.79733363847,32.685980853254,32685980.853275
0.00168,2.5331577791336e-09,3.0709328565017e-06,0.00047472209365999,2.53315e-09,0,955772699369.03,3.8321464523492e-06,955772699369.02,0.00044683996713016,955769036722.11,8436526069784.8,6.5031306842646e-05,8436526070334.2,0.0020129201492992,8435977467145.6,820.26671373389,46.391590522233,46391590.522255
0.00169,4.5148583901944e-09,3.5655715391596e-07,0.00047472209365999,4.51486e-09,0,842817584468.45,7.0005165376184e-06,842817584468.44,0.00044683996713016,842811684351.31,7446157066991.3,0.00011078103986621,7446157067816.9,0.0020129201492992,7445332265340.8,906.81360332269,15.399627621493,15399627.621955
0.0017,5.1625507017511e-10,9.5491126317161e-06,0.00047472209365999,5.1626e-10,0,875058065828.64,8.0466300909132e-07,875058065828.6,0.00044683996713016,875057361702.35,5526914957968.4,2.325603184028e-05,5526914958097.5,0.0020129201492992,5526786426847.3,920.2182150068,7.9389243826479,7938924.3826507
0.00171,1.2340545613372e-11,4.4215022040679e-05,0.00047472209365999,1.234e-11,0,303266577252.53,3.4290115812884e-09,303266577252.47,0.00044683996713016,303266576212.63,5357979163067.2,2.7937980159191e-07,5357979163069.3,0.0020129201492992,5357977666156.5,824.54151764397,8.6691553590289,8669155.3590183
0.00172,2.3965222486471e-08,3.1351793368962e-07,0.00047472209365999,2.396523e-08,0,720400736276.95,3.2445101563802e-05,720400736276.95,0.00044683996713016,720377363560.23,7295752887187.6,0.00033968663884769,7295752889665.8,0.0020129201492992,7293275458960.8,930.89265051176,33.478879073702,33478879.073903
0.00173,1.8529660026796e-08,1.6204746555096e-06,0.00047472209365999,1.852963e-08,0,986082315496.9,3.0714789020166e-05,986082315496.9,0.00044683996713016,986052029116.87,9263627796883.2,0.00028320661497538,9263627799506.9,0.0020129201492992,9261005019000.5,854.17279390226,43.041897089674,43041897.089665
0.00174,5.2385432073871e-09,6.1226736828012e-07,0.00047472209365999,5.23854e-09,0,718662877138.75,8.0408512814131e-06,718662877138.74,0.00044683996713016,718657098523.9,8535197840963.3,0.00012428956429586,8535197842024.8,0.0020129201492992,8534137136776.9,930.3253810613,3.3027555472101,3302755.5484518
0.00175,8.330181586177e-11,2.1799060864863e-05,0.00047472209365999,8.33e-11,0,670992637956.78,7.8828856751313e-08,670992637956.69,0.00044683996713016,670992585063.2,6992239295311.5,4.3354892065235e-06,6992239295342.6,0.0020129201492992,6992208980665,814.88432134398,19.825835172415,19825835.172448
0.00176,3.0316684280428e-09,2.780009249169e-06,0.00047472209365999,3.03166e-09,0,909371826616.22,5.0562469407926e-06,909371826616.21,0.00044683996713016,909367228630.95,8978203505116.8,8.3042430941138e-05,8978203505863.2,0.0020129201492992,8977457995181.2,850.58266461626,17.021673540399,17021673.540403
0.00177,2.8948469891461e-09,1.0400725239913e-06,0.00047472209365999,2.89485e-09,0,975116639352.12,4.8837525252389e-06,975116639352.11,0.00044683996713016,975111877147.02,5021142265855,7.7899222319377e-05,5021142266246.6,0.0020129201492992,5020751153244.7,943.25119395848,23.467465467341,23467465.467344
0.00178,1.0737404447883e-08,5.1708158341528e-07,0.00047472209365999,1.073741e-08,0,743247543290.28,1.6149263552986e-05,743247543290.28,0.00044683996713016,743235540583.65,7621645246556.9,0.00020929486219876,7621645248152.5,0.0020129201492992,7620050409156.5,938.4614213071,10.863860128263,10863860.128274
0.00179,2.5701623608459e-08,5.2947883839555e-07,0.00047472209365999,2.570161e-08,0,836427975919.33,3.934953868853e-05,836427975919.33,0.00044683996713016,836395064159.39,8166901250402.5,0.00036653793145124,8166901253395.7,0.0020129201492992,8163908868133.4,910.5345139734,31.299312137422,31299312.137502
0.0018,8.5687129601363e-09,8.2157705237979e-07,0.00047472209365999,8.56872e-09,0,870412798820.61,1.3278849020866e-05,870412798820.61,0.00044683996713016,870401240893.95,5716183045424.6,0.0001629494881405,5716183046356.4,0.0020129201492992,5715251748077.6,937.48942247034,36.280448127437,36280448.127428
0.00181,3.4061630575076e-09,8.976406406079e-07,0.00047472209365999,3.40616e-09,0,828783203307.19,5.1848642141001e-06,828783203307.19,0.00044683996713016,828778906201.1,8250691677184.6,8.6032539714149e-05,8250691677895.2,0.0020129201492992,8249981910288.3,856.80432255823,30.940317539426,30940317.539424
0.00182,3.197382436388e-09,7.6199512541827e-07,0.00047472209365999,3.19738e-09,0,604015036050.43,4.2343592901814e-06,604015036050.43,0.00044683996713016,604012478444.58,8134693563082.8,8.5146764815321e-05,8134693563776.2,0.0020129201492992,8134000979214.5,875.59202533113,23.784422148935,23784422.148937
0.00183,4.6328972546084e-10,5.9258597925633e-07,0.00047472209365999,4.6329e-10,0,999232204338.86,6.8223710005925e-07,999232204338.81,0.00044683996713016,999231522626.04,5403149718195.3,1.7910551694748e-05,5403149718292.6,0.0020129201492992,5403052946536.2,867.5312204788,37.24811881463,37248118.814651
0.00184,8.7081195004659e-09,1.2057162844906e-06,0.00047472209365999,8.70813e-09,0,348215448069.94,4.5282292349464e-06,348215448069.94,0.00044683996713016,348213871277.71,6857886002857.8,0.00015882247938694,6857886003947.5,0.0020129201492992,6856796989359.3,913.91824984958,45.590049848417,45590049.848429
0.00185,9.7392469297964e-10,4.8186500364905e-06,0.00047472209365999,9.7392e-10,0,675521595624.67,1.2804930968201e-06,675521595624.66,0.00044683996713016,675520730625.04,9301256142349.9,3.5582179285411e-05,9301256142681.8,0.0020129201492992,9300925195162.1,802.34004602697,26.147314141747,26147314.14183
0.00186,2.3997576191107e-09,3.1749601841342e-06,0.00047472209365999,2.39975e-09,0,847726626891.19,3.8850351137659e-06,847726626891.18,0.00044683996713016,847723333456.27,9632451302177.5,7.1065262075714e-05,9632451302863,0.0020129201492992,9631766818144.3,829.13260932984,14.883144759733,14883144.759734
0.00187,6.5614516220476e-09,1.2768427198175e-06,0.00047472209365999,6.56146e-09,0,900855000923.15,1.1339631287874e-05,900855000923.15,0.00044683996713016,900844785675.44,6489714826202.4,0.0001478881749435,6489714827162.7,0.0020129201492992,6488755216035.9,948.22646292087,11.552595835872,11552595.835886
0.00188,1.0731550676602e-10,4.1867629326276e-05,0.00047472209365999,1.0732e-10,0,487444417751.65,9.7320060231699e-08,487444417751.58,0.00044683996713016,487444370313.53,7786945284175.2,6.5339035248408e-06,7786945284226.8,0.0020129201492992,7786894405358.4,821.74627421748,12.941265184141,12941265.184129
0.00189,7.0862576116344e-10,5.981734563035e-06,0.00047472209365999,7.0863e-10,0,385751192485.18,4.9882274864791e-07,385751192485.16,0.00044683996713016,385751000063.8,5948741807682.4,2.5667351795352e-05,5948741807835.6,0.0020129201492992,5948589123152.7,887.15246931423,35.774818448584,35774818.448695
0.0019,2.3436631467317e-08,7.9075648929839e-07,0.00047472209365999,2.343665e-08,0,340645710139.97,1.2017544863236e-05,340645710139.97,0.00044683996713016,340641616464.06,7331219015337.8,0.00032537154762685,7331219017723.1,0.0020129201492992,7328834421139.8,926.93049676651,45.850980648214,45850980.648221
0.00191,1.7798147813242e-10,8.3050478876681e-06,0.00047472209365999,1.7798e-10,0,315205504336.94,6.3809736120245e-08,315205504336.9,0.00044683996713016,315205484223.77,8020462218848.5,9.1729245653272e-06,8020462218922.9,0.0020129201492992,8020388648428.5,818.11774340942,22.203401935319,22203401.935461
0.00192,1.2046972927336e-09,2.247253601754e-06,0.00047472209365999,1.2047e-09,0,656303236991.05,1.7410435871921e-06,656303236991.04,0.00044683996713016,656302094340.5,9684656723029.9,4.3014516188259e-05,9684656723447.5,0.0020129201492992,9684240160124.8,847.01173339969,5.1835157007271,5183515.700774
0.00193,2.4152832199734e-10,6.9473881591244e-06,0.00047472209365999,2.4153e-10,0,455314347108.52,2.2972356599455e-07,455314347108.48,0.00044683996713016,455314242512.11,6087003442707,1.2513708652872e-05,6087003442783.8,0.0020129201492992,6086927272672.5,882.71122430062,15.663398504026,15663398.504023
0.00194,1.1173125352081e-07,5.6851455089244e-07,0.00047472209365999,1.1173119e-07,0,658906898346.28,0.00014847380210712,658906898346.28,0.00044683996713016,658809082456.95,8924701751903.4,0.0010215147321589,8924701761011.7,0.0020129201492992,8915594340938.2,916.03124341477,49.010623324743,49010623.325353
0.00195,2.9942842759066e-07,1.494819091529e-06,0.00047472209365999,2.9942798e-07,0,889514718715.8,0.00048897790593451,889514718715.8,0.00048897790593451,889079978249.83,9886709635925.9,0.002093539682821,9886709656581.9,0.002093539682821,9866054658984.4,927.56081397879,37.005616875716,37005616.87573
0.00196,1.1719266527803e-08,5.5701493081646e-07,0.00047472209365999,1.171926e-08,0,324662495138.15,6.2566354364136e-06,324662495138.15,0.00048897790593451,324660463855.99,9375008379455.5,0.00021692668410373,9375008381489.7,0.002093539682821,9372975131040.1,886.44337043231,22.945008055534,22945008.055562
0.00197,5.2965912710784e-09,2.399805149046e-07,0.00047472209365999,5.29659e-09,0,392120904833.91,4.3844004536353e-06,392120904833.9,0.00048897790593451,392119185626.37,9420674428389.5,0.00012562120973275,9420674429573.8,0.002093539682821,9419491140517.4,884.92704419083,10.635853184936,10635853.184967
0.00198,6.3926745799504e-08,8.7286708655135e-07,0.00047472209365999,6.392669e-08,0,375543292386.8,4.4890889899891e-05,375543292386.8,0.00048897790593451,375526434670.96,9847413248994.3,0.00073519896862037,9847413256229.8,0.002093539682821,9840178759719.2,925.45618453888,19.074690198437,19074690.198448
0.00199,3.1584564278003e-10,1.3795219148675e-05,0.00047472209365999,3.1585e-10,0,495751210195.96,3.0883525680779e-07,495751210195.92,0.00048897790593451,495751057090.55,5283851571993.5,1.291393607344e-05,5283851572062.2,0.002093539682821,5283783337553.2,882.71274964434,34.092978493435,34092978.493445
0.002,1.1748013201851e-10,1.1237530361886e-06,0.00047472209365999,1.1748e-10,0,576819477382.74,1.2058323294867e-07,576819477382.67,0.00048897790593451,576819407827.99,5527228909822.3,6.0475223571476e-06,5527228909856.3,0.002093539682821,5527195483984,866.90103828624,19.670301337415,19670301.337423
0.00201,1.0067590189521e-10,4.0704258896271e-05,0.00047472209365999,1.0068e-10,0,328051995021.09,1.3661552226788e-08,328051995021.03,0.00048897790593451,328051990539.39,5197467785370.3,2.6642805415966e-06,5197467785384.6,0.002093539682821,5197453937894.9,838.0613726094,44.589565723442,44589565.723641
0.00202,1.2695961873488e-10,3.0030333888187e-06,0.00047472209365999,1.2696e-10,0,384234989476.45,4.6301866242418e-08,384234989476.39,0.00048897790593451,384234971685.65,5130172001283.4,4.0206207855647e-06,5130172001304.6,0.002093539682821,5130151374890.2,849.59535264806,43.321921756767,43321921.756771
0.00203,3.771753605317e-11,6.5322026257517e-05,0.00047472209365999,3.772e-11,0,727309418146.03,4.4016052615833e-08,727309418145.91,0.00048897790593451,727309386132.74,5841136475614.7,2.619524941867e-06,5841136475630.5,0.002093539682821,5841121174652.1,851.3628393681,7.3555548479681,7355554.848798
0.00204,3.8949295979982e-08,4.1027670041848e-07,0.00047472209365999,3.894928e-08,0,845168103260.01,5.6911700458729e-05,845168103260.01,0.00048897790593451,845120006043.38,8112170102911.5,0.00047330376478495,8112170106750,0.002093539682821,8108332398661.1,900.94603085151,49.41703067682,49417030.678378
0.00205,4.5508306014778e-11,3.7222263730077e-05,0.00047472209365999,4.551e-11,0,934020488791.96,2.2137955923831e-08,934020488791.8,0.00048897790593451,934020468114.66,5438200940417.2,1.3642674186365e-06,5438200940425.2,0.002093539682821,5438193521267,812.02530866097,24.610245410399,24610245.410594
0.00206,3.8900757728785e-10,6.227891698769e-06,0.00047472209365999,3.8901e-10,0,566470510187,4.4935242136814e-07,566470510186.96,0.00048897790593451,566470255642.21,6568607710231.9,1.7229701053124e-05,6568607710345.7,0.002093539682821,6568494537034.6,863.42005338484,25.189228954616,25189230.630727
0.00207,1.1450144084503e-10,1.2583799347767e-05,0.00047472209365999,1.145e-10,0,963466427080.87,1.0843336863387e-07,963466427080.75,0.00048897790593451,963466322608.97,6365250136761.4,4.6809264898282e-06,6365250136791.8,0.002093539682821,6365220341632.8,806.84565534939,35.665035510867,35665035.510871
0.00208,1.1876612661778e-10,3.2612462948114e-05,0.00047472209365999,1.1877e-10,0,378240538031.99,8.9082868918596e-08,378240538031.94,0.00048897790593451,378240504337.24,7460044198530.2,7.5017176949871e-06,7460044198586.9,0.002093539682821,7459988235804.4,846.84810458209,9.0740250492523,9074025.0494768
0.00209,2.302441698358e-07,1.2153886177063e-06,0.00047472209365999,2.3024389e-07,0,675532490235.76,0.00031791914033409,675532490235.76,0.00048897790593451,675317793783.31,9842625247671.9,0.0017467131383273,9842625264835.2,0.002093539682821,9825462982390.4,928.25459814019,36.12354890081,36123548.901081
0.0021,3.0251400888813e-08,6.9050778476109e-07,0.00047472209365999,3.025138e-08,0,480094446642.25,3.4431916073639e-05,480094446642.25,0.00048897790593451,480077916639.71,9187255341592.3,0.00042094141282769,9187255345458.9,0.002093539682821,9183389672569,905.20570663262,27.862175787955,27862175.787986
0.00211,1.3369879863421e-09,1.5061129318855e-06,0.00047472209365999,1.33699e-09,0,830532527201.51,1.9898348559702e-06,830532527201.5,0.00048897790593451,830530874582.23,5775393680650.8,4.5984512269766e-05,5775393680916.9,0.002093539682821,5775128114201.2,918.8187446642,16.247202554466,16247202.554498
0.00212,7.3166684606914e-09,1.1563597884442e-06,0.00047472209365999,7.31666e-09,0,589121180864.61,9.1108010755121e-06,589121180864.61,0.00048897790593451,589115813547.63,9684568511980.6,0.00014831682618515,9684568513417.7,0.002093539682821,9683132340524.3,828.03398287112,44.169244085082,44169244.085378
0.00213,9.6526027182214e-12,0.0002697117327855,0.00047472209365999,9.65e-12,0,988076758386.69,9.6204314291786e-09,988076758386.5,0.00048897790593451,988076748880.96,6490246169234.3,6.8085637946964e-07,6490246169239.4,0.002093539682821,6490241750311.8,800.4631170716,4.1997467558116,4199746.7570689
0.00214,1.7942787809966e-09,6.7938303484569e-07,0.00047472209365999,1.79428e-09,0,801503038837.72,2.4826273356446e-06,801503038837.71,0.00048897790593451,801501049009.31,5880027404622.9,5.1552484010956e-05,5880027404926.6,0.002093539682821,5879724290230.5,892.63911188703,39.403362571457,39403362.572194
0.00215,3.3680935321473e-08,7.5180490296474e-07,0.00047472209365999,3.368091e-08,0,321990767166.19,1.7826521661504e-05,321990767166.19,0.00048897790593451,321985027293.12,9503915670439.1,0.00046671467191112,9503915674873.6,0.002093539682821,9499482122756.9,922.23656360065,16.782260448417,16782260.448535
0.00216,3.730619930176e-10,5.3423513540839e-06,0.00047472209365999,3.7306e-10,0,898822456782.11,5.3175696594812e-07,898822456782.06,0.00048897790593451,898821978827.26,6787898566492,1.6119771094158e-05,6787898566602.1,0.002093539682821,6787789148884.7,840.5800374325,28.681011916994,28681011.916999
0.00217,6.8051842760451e-11,2.7079506987824e-05,0.00047472209365999,6.805e-11,0,451550835116.96,2.8187181815006e-08,451550835116.88,0.00048897790593451,451550822389.01,6519890075024.1,2.1625764327934e-06,6519890075038.8,0.002093539682821,6519875975293.9,803.01470220898,32.879820943531,32879820.94353
0.00218,1.165544120146e-10,3.7855123104357e-05,0.00047472209365999,1.1655e-10,0,938757540648.37,1.9619494820314e-07,938757540648.28,0.00048897790593451,938757356468.92,6727671621177.8,7.5769326458361e-06,6727671621229.5,0.002093539682821,6727620646449.3,854.89252000704,6.4960696392529,6496069.6394904
0.00219,4.9977145193271e-09,9.0427958046573e-07,0.00047472209365999,4.99771e-09,0,408688462650.94,4.1225421060719e-06,408688462650.93,0.00048897790593451,408686777822.49,9281535280209.8,0.00011094176147052,9281535281240.3,0.002093539682821,9280505684561.8,845.01972404206,36.907386193069,36907386.193504
0.0022,5.79362145484e-09,1.9771506857818e-06,0.00047472209365999,5.79361e-09,0,556517471693.23,7.0789926723426e-06,556517471693.22,0.00048897790593451,556513532138.01,9881320373114.9,0.00012739967897308,9881320374374.6,0.002093539682821,9880061656431.6,819.47299712848,40.814122923965,40814122.923967
0.00221,4.9917964817793e-08,6.9750073128642e-07,0.00047472209365999,4.991793e-08,0,882504012227.19,8.1273223598128e-05,882504012227.19,0.00048897790593451,882432294110.04,8643021682827.6,0.00062915257563127,8643021688262.8,0.002093539682821,8637587322516.4,946.11375909035,12.739338494088,12739338.494383
0.00222,3.0158254002343e-08,8.6204043173191e-07,0.00047472209365999,3.015828e-08,0,470493358365.4,2.9586722986836e-05,470493358365.4,0.00048897790593451,470479438420.58,6925249128775.5,0.00039352264586966,6925249131500.3,0.002093539682821,6922524958437.7,943.22514049198,43.112992116549,43112992.116975
0.00223,4.8421622786986e-08,5.7556654883523e-08,0.00047472209365999,4.842162e-08,0,521413841915.13,5.5156218952433e-05,521413841915.13,0.00048897790593451,521385084285.27,8474549165681,0.00055717409880834,8474549170401,0.002093539682821,8469829995786,911.22817769353,46.715819235923,46715819.235913
0.00224,1.1786530353765e-10,3.9844424814494e-05,0.00047472209365999,1.1787e-10,0,349323507922.35,2.5159029262314e-08,349323507922.28,0.00048897790593451,349323499133.71,6201852364351.3,3.6430385794161e-06,6201852364374.5,0.002093539682821,6201829770846.2,814.85455845948,46.626877606257,46626877.645808
0.00225,3.8751705324833e-10,7.6041279797706e-06,0.00047472209365999,3.8752e-10,0,814066062263.66,6.1923263550689e-07,814066062263.62,0.00048897790593451,814065558167.7,7976992627430.7,1.936959621257e-05,7976992627586,0.002093539682821,7976838119297.3,869.24368190823,3.8921065438134,3892106.5454915
0.00226,3.2159361818277e-08,1.6112993993489e-06,0.00047472209365999,3.215931e-08,0,993934331920.16,5.6069295865981e-05,993934331920.16,0.00048897790593451,993878605846.55,9329488225216,0.00044207926924628,9329488229339.4,0.002093539682821,9325365674373.2,888.49827492501,26.368759091427,26368759.091558
0.00227,5.4398572785152e-09,1.3379992530333e-06,0.00047472209365999,5.43985e-09,0,950907849218.62,9.2250988852812e-06,950907849218.61,0.00048897790593451,950899077080.6,8330191926556.2,0.00012462098024635,8330191927595,0.002093539682821,8329153939227.7,873.74633365225,22.627442961196,22627442.961202
0.00228,6.5317072241255e-10,1.1060099953601e-06,0.00047472209365999,6.5317e-10,0,616701673161.45,8.5545725689168e-07,616701673161.42,0.00048897790593451,616701145599.97,9201750260133.3,2.7733961163673e-05,9201750260389.4,0.002093539682821,9201495066226.5,834.71829438147,8.1167269251477,8116726.9251496
0.00229,1.6709861797895e-09,2.2861958905819e-06,0.00047472209365999,1.67099e-09,0,503105160637.31,1.836024923091e-06,503105160637.3,0.00048897790593451,503104236925.4,7418637759788,5.3866067472114e-05,7418637760188.4,0.002093539682821,7418238168470.3,885.55876146993,20.884323379543,20884323.379551
0.0023,2.4567128395659e-08,6.5304363712888e-08,0.00047472209365999,2.456713e-08,0,594429524232.94,3.235631346877e-05,594429524232.94,0.00048897790593451,594410291307.22,7826258932308.7,0.00036987392714022,7826258935203.2,0.002093539682821,7823365273471.6,939.49411859749,21.576980188676,21576980.188696
0.00231,2.514210829125e-08,6.7963683441766e-08,0.00047472209365999,2.514211e-08,0,743402937176.47,3.5282259986624e-05,743402937176.47,0.00048897790593451,743376709166.15,7700853824850.9,0.00035617501937482,7700853827593.6,0.002093539682821,7698111949678.1,923.44521108364,31.941146923225,31941146.923241
0.00232,9.6043775185513e-10,2.3407447325915e-06,0.00047472209365999,9.6044e-10,0,864434452129.76,1.5290934757542e-06,864434452129.74,0.00048897790593451,864433130330.7,8907034263251.1,3.6577278039809e-05,8907034263577.8,0.002093539682821,8906708480098.6,856.87481486314,5.4113042480034,5411304.2482211
0.00233,2.0947560074857e-09,1.9059531061213e-06,0.00047472209365999,2.09476e-09,0,772321109500.53,2.964581337041e-06,772321109500.52,0.00048897790593451,772318819898.57,6836111794286.8,6.2482697379624e-05,6836111794714.6,0.002093539682821,6835684682269.4,893.80445625986,22.838780016541,22838780.016614
0.00234,1.1253803652015e-07,2.3565508834964e-07,0.00047472209365999,1.1253801e-07,0,648114214518.26,0.00014089409916025,648114214518.26,0.00048897790593451,648022911913.85,8403757356683.9,0.0010333932766133,8403757365360.2,0.002093539682821,8395081935455.2,941.04551437285,38.818026537989,38818026.538035
0.00235,5.9403200062414e-09,1.050686838181e-09,0.00047472209365999,5.94032e-09,0,442154026577.3,6.0590186515969e-06,442154026577.3,0.00048897790593451,442151347574.04,9063408801214.4,0.00013562165683953,9063408802444.3,0.002093539682821,9062179773378.9,899.05483824311,9.5641495891453,9564149.5894917
0.00236,1.2358066531757e-08,5.2854228032502e-07,0.00047472209365999,1.235806e-08,0,455653314780.48,1.2672781642943e-05,455653314780.48,0.00048897790593451,455647540458.7,8551922369111.9,0.00021510704001195,8551922370952,0.002093539682821,8550083186025.9,889.51883661114,35.007364833997,35007364.834228
0.00237,3.7164126818999e-11,0.00011105540901712,0.00047472209365999,3.716e-11,0,679226772282.25,1.3780496503084e-08,679226772282.12,0.00048897790593451,679226762922.17,5588654506683.7,1.3989819054381e-06,5588654506692.1,0.002093539682821,5588646688268.2,824.90962188553,17.704046164585,17704046.164623
0.00238,3.5571497825855e-08,6.1120408970596e-08,0.00047472209365999,3.55715e-08,0,966355448972.11,5.7153982802064e-05,966355448972.11,0.00048897790593451,966300221065.9,6851450577344.5,0.00044380929171717,6851450580384.6,0.002093539682821,6848411188825.4,935.08265341823,41.15999615483,41159996.154979
0.00239,2.2462559432383e-09,1.8060071658872e-06,0.00047472209365999,2.24626e-09,0,338609730724.6,1.2208104130673e-06,338609730724.59,0.00048897790593451,338609317346.82,5989976043980.9,6.4850804148545e-05,5989976044370,0.002093539682821,5989587614407.6,931.18060337466,24.45736900203,24457369.002079
0.0024,1.4819630236916e-08,1.5986605060364e-08,0.00047472209365999,1.481963e-08,0,365660387500.32,1.1040591783671e-05,365660387500.32,0.00048897790593451,365656350437.82,8680090460306.1,0.00025869605599703,8680090462551.9,0.002093539682821,8677845535891.4,915.66950581905,19.089121243179,19089121.243153
0.00241,4.3906677888361e-10,7.336225189835e-06,0.00047472209365999,4.3907e-10,0,429171049179.11,3.411544299579e-07,429171049179.08,0.00048897790593451,429170902765.56,6122022464556.7,1.6610006918895e-05,6122022464659,0.002093539682821,6121920779410.2,861.51383624196,41.716215336886,41716215.337011
0.00242,1.4095572779562e-11,0.00031398726512146,0.00047472209365999,1.41e-11,0,502886244157.47,1.4864500365414e-08,502886244157.38,0.00048897790593451,502886236682.32,7756015602714.5,1.3428299293726e-06,7756015602725.7,0.002093539682821,7756005187718.6,805.96237821916,3.1731607298722,3173160.7309939
0.00243,5.3839637234894e-09,1.1657774110778e-06,0.00047472209365999,5.38397e-09,0,878340351358.62,8.0164037716226e-06,878340351358.61,0.00048897790593451,878333310284.16,6319709248967,0.00011714844806496,6319709249707.9,0.002093539682821,6318968991556.3,913.66047182031,32.522434118265,32522434.118641
0.00244,7.0811126730248e-11,1.5912021581233e-05,0.00047472209365999,7.081e-11,0,894035861774.46,4.3873994600914e-08,894035861774.31,0.00048897790593451,894035822549.54,5331172152712.8,2.4894765494853e-06,5331172152726.6,0.002093539682821,5331158880917.8,826.19653884377,29.478021136589,29478021.136593
0.00245,1.1035127522184e-08,6.81658587141e-07,0.00047472209365999,1.103512e-08,0,703064430961.65,1.5133454839627e-05,703064430961.65,0.00048897790593451,703053791328.85,8370930035480,0.00019346089259543,8370930037100,0.002093539682821,8369310901122.7,871.42578227203,44.962181813557,44962181.813575
0.00246,8.1524805103534e-08,1.2892231932784e-06,0.00047472209365999,8.15247e-08,0,688967020840.38,0.00011303007788572,688967020840.38,0.00048897790593451,688889155645.46,9760925857162.8,0.000857935769034,9760925865530.8,0.002093539682821,9752558788138.8,917.08653627103,23.477287586668,23477287.586777
0.00247,1.3487833528192e-08,4.7982534955516e-07,0.00047472209365999,1.348784e-08,0,954018940233.73,2.2932377878763e-05,954018940233.73,0.00048897790593451,953997062812.59,6075154166994.1,0.00023635388320378,6075154168430.3,0.002093539682821,6073718620012.8,947.44415554917,28.371178102999,28371178.103012
0.00248,4.8178242810765e-09,8.8859203292664e-07,0.00047472209365999,4.81782e-09,0,755801107679.69,6.8716832316183e-06,755801107679.68,0.00048897790593451,755795914089.58,8896559538289,0.00010642665935329,8896559539236.6,0.002093539682821,8895612807934.9,836.01224519326,42.660457044527,42660457.044541
0.00249,8.842065339825e-08,1.2824876492078e-06,0.00047472209365999,8.842054e-08,0,985386957314.11,0.00014515121194229,985386957314.1,0.00048897790593451,985243947961,8995453256013.8,0.00087337559301465,8995453263864.2,0.002093539682821,8987603702300.5,908.55156079496,39.681376322071,39681376.322045
0.0025,9.8340769322192e-11,7.8230851358761e-06,0.00047472209365999,9.834e-11,0,911540425953.22,1.3952851206277e-07,911540425953.11,0.00048897790593451,911540298767.36,6156365905044.2,6.0145324159588e-06,6156365905081.9,0.002093539682821,6156328877604.6,848.78321241899,12.152239305258,12152239.305519
0.00251,1.4307245609414e-09,3.1878644290272e-06,0.00047472209365999,1.43072e-09,0,669783063365.15,1.8575910756961e-06,669783063365.13,0.00048897790593451,669781819184.42,8294788872306.7,4.378051838358e-05,8294788872670.7,0.002093539682821,8294425738048.2,830.05858266964,38.332028421547,38332028.421768
0.00252,1.3448689546806e-08,7.7726427323081e-07,0.00047472209365999,1.34487e-08,0,515747793300.9,1.5820758906072e-05,515747793300.9,0.00048897790593451,515739633908.49,6689286072822.4,0.00023647021943748,6689286074404.5,0.002093539682821,6687704629841,949.97712728183,25.543584210133,25543584.21014
0.00253,1.7654801208767e-09,6.8466767443579e-08,0.00047472209365999,1.76548e-09,0,603611891650.76,2.2683159120177e-06,603611891650.75,0.00048897790593451,603610522471.41,8017325503275.1,5.4496553317039e-05,8017325503712.8,0.002093539682821,8016888610477.5,859.51463878678,27.080590253946,27080590.253947
0.00254,3.6909327372926e-10,8.8697316588351e-06,0.00047472209365999,3.6909e-10,0,396481471769.88,2.5875408897167e-07,396481471769.84,0.00048897790593451,396481369178.7,7874533959660.4,1.5051791607679e-05,7874533959779.8,0.002093539682821,7874415435600.3,820.67652106045,35.270320800163,35270320.800173
0.00255,6.3985122708605e-08,1.2926241115487e-06,0.00047472209365999,6.398504e-08,0,918765579218.41,0.00010803610501315,918765579218.41,0.00048897790593451,918666330086.3,9394283470088.3,0.00074135033703728,9394283477048.6,0.002093539682821,9387324174148,926.55678066372,15.406449610419,15406449.6105
0.00256,2.1282483785568e-10,2.4254777612804e-05,0.00047472209365999,2.1283e-10,0,709318033240.76,2.3417079407312e-07,709318033240.69,0.00048897790593451,709317867139.23,6005773021196.7,9.0147887462006e-06,6005773021251.4,0.002093539682821,6005718880909.7,844.18536910303,34.593419613513,34593419.613579
0.00257,1.5695164305039e-09,2.2742596889974e-06,0.00047472209365999,1.56952e-09,0,808080032458.31,2.3226900958341e-06,808080032458.3,0.00048897790593451,808078155543.19,6979844808112.4,5.219121434902e-05,6979844808477.3,0.002093539682821,6979480540547.4,895.67673370843,14.300257450222,14300257.450299
0.00258,5.3041150145254e-10,2.8307395080317e-06,0.00047472209365999,5.3041e-10,0,316418453883.48,2.723620550164e-07,316418453883.46,0.00048897790593451,316418367703.13,9736677314151.9,2.1614490673831e-05,9736677314363.3,0.002093539682821,9736466865379.7,801.77910400841,13.801951302727,13801952.544266
0.00259,1.123863670928e-09,3.2663569957134e-06,0.00047472209365999,1.12386e-09,0,488542335290.59,1.2160125956626e-06,488542335290.58,0.00048897790593451,488541741217.68,9466610327860.8,4.0725722972992e-05,9466610328247.3,0.002093539682821,9466224809011.7,821.13801716391,18.149786022855,18149786.02286
0.0026,3.2408446014351e-10,1.3762476893558e-05,0.00047472209365999,3.2408e-10,0,412595699924.69,2.5014019416774e-07,412595699924.65,0.00048897790593451,412595596717.95,7172877919864.5,1.3958363873752e-05,7172877919965.4,0.002093539682821,7172777799622,840.49213602729,31.0872180181,31087218.018102
0.00261,1.4149648571182e-07,6.7642585457895e-07,0.00047472209365999,1.4149639e-07,0,778969481768.27,0.00020120813546121,778969481768.27,0.00048897790593451,778812778301.28,8821685628737.2,0.0012515892662972,8821685639765.5,0.002093539682821,8810658303375.7,944.71518555483,30.118239083734,30118239.083738
0.00262,3.0708880997977e-07,1.4978743862498e-06,0.00047472209365999,3.0708835e-07,0,976540224654.8,0.00052284301479684,976540224654.8,0.00052284301479684,976029914231.91,9645837708400.4,0.0021223314450276,9645837728829.7,0.0021223314450276,9625409399360.8,925.58452572622,41.865020264083,41865020.264079
0.00263,4.079247625303e-08,6.4357570400732e-07,0.00047472209365999,4.079245e-08,0,348234811856.98,2.3965108513109e-05,348234811856.98,0.00052284301479684,348226466571.92,9574256553039.8,0.00050135277528538,9574256557838.5,0.0021223314450276,9569458878273.2,884.10524133946,47.224115016103,47224115.016118
0.00264,3.5645051397909e-11,0.00013881071782769,0.00047472209365999,3.565e-11,0,565278921343.87,3.8088044767097e-08,565278921343.78,0.00052284301479684,565278899813.5,5732979956163.2,2.6140076082507e-06,5732979956178.8,0.0021223314450276,5732964970149.2,864.72590882197,5.9915901576242,5991590.1590661
0.00265,2.9044434312671e-09,1.1813868176994e-06,0.00047472209365999,2.90444e-09,0,303244151781.85,1.1647433733128e-06,303244151781.85,0.00052284301479684,303243798580.65,8065516618746.7,8.0670192703378e-05,8065516619398.1,0.0021223314450276,8064866024450.4,910.36034077379,9.8690216615629,9869021.6615564
0.00266,1.6751726284208e-09,1.5690471822022e-06,0.00047472209365999,1.67517e-09,0,641029505832.43,2.1765121991969e-06,641029505832.42,0.00052284301479684,641028110626.92,7056498277053,5.3869882395039e-05,7056498277433.8,0.0021223314450276,7056118164797.3,891.07280135692,20.238928345714,20238928.345698
0.00267,3.1298127216249e-11,5.9833346662297e-05,0.00047472209365999,3.13e-11,0,632315501833.64,2.2573870003203e-08,632315501833.53,0.00052284301479684,632315487559.83,6627133382091.8,1.8191812640562e-06,6627133382104.5,0.0021223314450276,6627121326156.8,817.06418072883,10.17298436811,10172984.368125
0.00268,8.779775042889e-09,5.7437597990187e-07,0.00047472209365999,8.77977e-09,0,650666812995.04,1.281759335426e-05,650666812995.04,0.00052284301479684,650658473119.32,9021468813593.9,0.00017824293033602,9021468815202.6,0.0021223314450276,9019861087122.5,920.70514590707,5.3552621798841,5355262.1798768
0.00269,5.4108303819056e-09,1.9187305441279e-06,0.00047472209365999,5.41082e-09,0,628634397507.69,7.6446434155e-06,628634397507.68,0.00052284301479684,628629591858.61,9930266037077.5,0.00012749881191995,9930266038344.4,0.0021223314450276,9929000101361,860.37903162682,10.857566145527,10857566.145526
0.0027,6.3497401915371e-10,6.3296749533437e-06,0.00047472209365999,6.3497e-10,0,836923026824.08,9.3275149207312e-07,836923026824.06,0.00052284301479684,836922246183.61,6406279496962.5,2.5733675032e-05,6406279497128,0.0021223314450276,6406114644090,872.44337871742,23.75608905774,23756089.057752
0.00271,5.9881543055322e-10,7.6307517804704e-06,0.00047472209365999,5.9882e-10,0,859461461780.34,9.4356462534381e-07,859461461780.31,0.00052284301479684,859460650823.67,8246826515552.1,2.5851383963503e-05,8246826515766.1,0.0021223314450276,8246613329184.5,842.06627226072,11.804358829252,11804358.829259
0.00272,7.5459975025951e-09,3.3095745076294e-07,0.00047472209365999,7.546e-09,0,358413046678.9,4.5127563577275e-06,358413046678.89,0.00052284301479684,358411429255.44,7932757666138.3,0.00014536450572987,7932757667292.1,0.0021223314450276,7931604692342.6,878.87471350322,49.740655778766,49740655.779802
0.00273,1.4943237959009e-10,1.5924446831845e-05,0.00047472209365999,1.4943e-10,0,721409718723.07,1.67713388957e-07,721409718722.99,0.00052284301479684,721409597733.02,7126096656152.9,7.1494973755212e-06,7126096656204.5,0.0021223314450276,7126045708507.8,816.14597522768,26.492054412768,26492054.412918
0.00274,7.4132357179091e-11,3.1797910311414e-05,0.00047472209365999,7.413e-11,0,527081501012.85,2.0777949314973e-08,527081501012.76,0.00052284301479684,527081490061.18,5038501582322.2,1.844162993535e-06,5038501582332,0.0021223314450276,5038492290521.1,833.09152575344,37.682762703926,37682762.703932
0.00275,3.2224589023018e-11,0.00014242777835187,0.00047472209365999,3.222e-11,0,549054236916,3.3003048723524e-08,549054236915.9,0.00052284301479684,549054218795.53,7698909722309.1,2.9376705818799e-06,7698909722332.5,0.0021223314450276,7698887105515,831.78652468413,2.8998703445251,2899870.3452484
0.00276,5.3909855210009e-09,2.6857724211085e-06,0.00047472209365999,5.391e-09,0,715298088077.25,7.5736344457773e-06,715298088077.25,0.00052284301479684,715292670712.05,5232997714405.5,0.00011401054398946,5232997715002.6,0.0021223314450276,5232401165502.3,933.22315921817,46.013999815004,46013999.816717
0.00277,4.5379940385091e-11,1.3136824306917e-06,0.00047472209365999,4.538e-11,0,752721775209.3,2.0562535356191e-08,752721775209.16,0.00052284301479684,752721759731.43,5660483257519.4,1.7509853676345e-06,5660483257529.9,0.0021223314450276,5660473346113.4,822.73898792761,20.366447029981,20366447.03018
0.00278,6.2607871125214e-09,4.6120036496737e-07,0.00047472209365999,6.26079e-09,0,848749932228.12,9.7865108834294e-06,848749932228.12,0.00052284301479684,848741626008.96,7605522906720.9,0.00013992551846022,7605522907785.8,0.0021223314450276,7604458848873.9,934.10431142225,6.8612234978072,6861223.4978339
0.00279,1.315818313754e-08,2.3844788440143e-07,0.00047472209365999,1.315818e-08,0,869548037150.95,2.113905581254e-05,869548037150.95,0.00052284301479684,869529656115.02,7567718191885.3,0.00023834787534179,7567718193689.4,0.0021223314450276,7565914872150.5,929.96464554027,15.72206352693,15722063.526931
0.0028,1.9174192254552e-08,1.6821885357643e-06,0.00047472209365999,1.917416e-08,0,765578716922.75,2.6988939828131e-05,765578716922.74,0.00052284301479684,765558055322.46,9990487661848.1,0.00030872644043451,9990487664932.5,0.0021223314450276,9987404286073.7,858.47406204447,29.276082615188,29276082.615209
0.00281,4.0578254421223e-08,1.0895548562775e-07,0.00047472209365999,4.057825e-08,0,437634712905.76,4.1973753711603e-05,437634712905.76,0.00052284301479684,437616344505.09,8735538112166.6,0.00053943559718597,8735538116877.2,0.0021223314450276,8730828392538.8,940.27901114517,18.704957427742,18704957.427747
0.00282,4.2476305268813e-09,2.2302075253082e-06,0.00047472209365999,4.24764e-09,0,796567831536.72,5.9062562489867e-06,796567831536.72,0.00052284301479684,796563126830.78,5475448776508,9.5066313236163e-05,5475448777029,0.0021223314450276,5474928295259.8,914.37978840994,48.130001535431,48130001.535788
0.00283,7.8008893288464e-09,1.1958710271591e-06,0.00047472209365999,7.80088e-09,0,738821070819.61,1.2111220360399e-05,738821070819.61,0.00052284301479684,738812122903.19,9128881484067.7,0.00016409546765532,9128881485566.3,0.0021223314450276,9127383721767.4,877.36004834679,17.255561059432,17255561.059871
0.00284,3.1334256664848e-10,8.1912570498636e-06,0.00047472209365999,3.1334e-10,0,663792706932.59,4.2336201764877e-07,663792706932.55,0.00052284301479684,663792425908.09,5635217516480.3,1.5958018511519e-05,5635217516570.8,0.0021223314450276,5635127591009.9,903.37542109138,11.277252328953,11277252.328938
0.00285,5.8309923643508e-10,1.3094922304831e-06,0.00047472209365999,5.831e-10,0,373902023398.49,4.3002651444145e-07,373902023398.47,0.00052284301479684,373901862610.78,7364772895387.8,2.57322853698e-05,7364772895578,0.0021223314450276,7364583387826.4,904.85999415654,4.8511403428556,4851140.3428666
0.00286,1.921858232649e-09,9.1960444667381e-07,0.00047472209365999,1.92186e-09,0,698557833034.04,2.6745048690088e-06,698557833034.03,0.00052284301479684,698555964742.71,7247824705861.2,6.0344221416502e-05,7247824706299.2,0.0021223314450276,7247387367913.2,896.7365157038,14.743470794422,14743470.794427
0.00287,9.4171418554683e-11,1.5063764283997e-05,0.00047472209365999,9.417e-11,0,310328034638.15,3.2740166996863e-08,310328034638.09,0.00052284301479684,310328024477.95,5053285909543.5,5.617359629139e-06,5053285909572.4,0.0021223314450276,5053257523578.7,898.86396432432,13.240266620779,13240266.620789
0.00288,3.0763534722269e-10,1.5124097339494e-05,0.00047472209365999,3.0764e-10,0,580419131479.37,3.0905053150891e-07,580419131479.32,0.00052284301479684,580418952100.58,5944926378710.7,1.21355506621e-05,5944926378783.5,0.0021223314450276,5944854234631,853.34119370512,40.098279798738,40098279.799004
0.00289,3.4249294426034e-10,8.5966315461398e-06,0.00047472209365999,3.4249e-10,0,611819048667.69,4.8181810051251e-07,611819048667.65,0.00052284301479684,611818753882.34,8162706041512.6,1.8444711864168e-05,8162706041663.9,0.0021223314450276,8162555485528.5,879.88680221583,2.3745983378552,2374598.3388598
0.0029,8.8413617000732e-10,4.3318848639223e-06,0.00047472209365999,8.8414e-10,0,823125090385.82,1.2611214061486e-06,823125090385.8,0.00052284301479684,823124052326.46,6253248295817.4,3.1740337399165e-05,6253248296016.5,0.0021223314450276,6253049821906.2,876.04085249628,30.486070475885,30486070.476181
0.00291,3.7415457457333e-11,0.00012139344381303,0.00047472209365999,3.742e-11,0,425890871701.06,2.3312522867433e-08,425890871700.99,0.00052284301479684,425890861772.47,5396664711894.6,2.3146056127957e-06,5396664711907.6,0.0021223314450276,5396652220773.1,868.61306326718,8.6737779478877,8673777.9479995
0.00292,9.7993446612496e-11,3.5173104358678e-05,0.00047472209365999,9.799e-11,0,905071844904.22,1.1449643135569e-07,905071844904.11,0.00052284301479684,905071741276.74,7015079952400.2,5.0671114427775e-06,7015079952436.5,0.0021223314450276,7015044406388.5,807.53904299085,21.959553652213,21959553.652235
0.00293,2.7171227761169e-07,6.5367604686783e-07,0.00047472209365999,2.717121e-07,0,403176106667.29,0.00021497615798258,403176106667.29,0.00052284301479684,403089452045.57,9417757443946.7,0.0019615410729314,9417757462384.8,0.0021223314450276,9399320291138,937.25303932814,48.697655018039,48697655.018291
0.00294,7.345683944422e-10,2.1857110917229e-06,0.00047472209365999,7.3457e-10,0,539381935792.04,7.9414849753291e-07,539381935792.01,0.00052284301479684,539381507443.02,8547127896946.9,2.6524645332748e-05,8547127897174.5,0.0021223314450276,8546901193424,811.98320529571,37.108460961531,37108460.961526
0.00295,9.5421962210441e-09,6.5195139746924e-07,0.00047472209365999,9.54219e-09,0,923529428214.36,1.4244343893346e-05,923529428214.36,0.00052284301479684,923516273330.97,7506340081142.1,0.00017330778276192,7506340082443.5,0.0021223314450276,7505039399404.2,881.70750626657,45.373493578573,45373493.578562
0.00296,2.9451838666462e-08,2.9425887436149e-07,0.00047472209365999,2.945183e-08,0,532496998051.6,3.6387386456955e-05,532496998051.6,0.00052284301479684,532477622582.57,8751426159845.8,0.00040408363058345,8751426163381.6,0.0021223314450276,8747891280177.4,906.76508400907,33.383515866318,33383515.866344
0.00297,3.9074332806133e-10,8.5173294994791e-06,0.00047472209365999,3.9074e-10,0,784755457420.19,4.4591472946392e-07,784755457420.15,0.00052284301479684,784755107486.33,7253499715992.6,1.4499974504802e-05,7253499716098.5,0.0021223314450276,7253394541956.6,809.88114619724,47.860217594017,47860217.594036
0.00298,2.7336102966944e-10,3.7667158307206e-06,0.00047472209365999,2.7336e-10,0,465266933368.14,2.3863160268788e-07,465266933368.1,0.00052284301479684,465266822340.78,7349437080004.1,1.1898092728276e-05,7349437080092.3,0.0021223314450276,7349349636760.6,828.89006866107,31.60677697863,31606776.978668
0.00299,8.7643348118025e-10,3.9720003312818e-06,0.00047472209365999,8.7643e-10,0,653023508450.08,1.1931264135534e-06,653023508450.06,0.00052284301479684,653022729311.41,8368652049229.1,3.4261123509375e-05,8368652049516.7,0.0021223314450276,8368365339630.6,849.83328220857,14.54716223506,14547162.235108
0.003,2.0534015251712e-10,7.4275404544875e-07,0.00047472209365999,2.0534e-10,0,459195788296.99,2.1408590838087e-07,459195788296.94,0.00052284301479684,459195689989.66,6504795143439.5,1.1663723294059e-05,6504795143516.1,0.0021223314450276,6504719274193.8,885.53148699411,8.1119489390439,8111948.939055
0.00301,2.0288690315468e-08,4.7733627365039e-07,0.00047472209365999,2.02887e-08,0,537075181736.41,2.5183384668902e-05,537075181736.41,0.00052284301479684,537061656706.12,7762508603847.5,0.00032811894693979,7762508606394.5,0.0021223314450276,7759962413152.2,942.36359270733,18.901225018439,18901225.018437
0.00302,1.1530439449059e-08,8.1948890384664e-07,0.00047472209365999,1.153043e-08,0,636424229557.52,1.5660499311724e-05,636424229557.52,0.00052284301479684,636414262992.4,8668990029772.6,0.00020356361009675,8668990031537.8,0.0021223314450276,8667225698020,875.90198568021,37.369231164894,37369231.164973
0.00303,3.8047124337816e-09,6.3967597696433e-07,0.00047472209365999,3.80471e-09,0,939351087034.2,5.8206212536518e-06,939351087034.19,0.00052284301479684,939345619459.12,9269288573345.9,9.126422511424e-05,9269288574192.7,0.0021223314450276,9268442696105.2,802.62409190251,48.544865235019,48544865.235042
0.00304,3.3113106920609e-09,2.089991139301e-07,0.00047472209365999,3.31131e-09,0,473304485083.57,3.477344625504e-06,473304485083.56,0.00052284301479684,473302839246.48,7828491082573,8.878691706132e-05,7828491083268.8,0.0021223314450276,7827796076692,915.23225721906,9.4497687597455,9449768.7609137
0.00305,1.4342693862824e-10,2.134401283355e-05,0.00047472209365999,1.4343e-10,0,710882618708.05,1.4242753808056e-07,710882618707.97,0.00052284301479684,710882517458.81,6260268154886.3,6.310968904551e-06,6260268154926.4,0.0021223314450276,6260228646778,831.07533398071,30.922216455758,30922216.455884
0.00306,1.9097023032587e-09,1.2060840378217e-06,0.00047472209365999,1.9097e-09,0,769060674561.81,2.9033079799637e-06,769060674561.81,0.00052284301479684,769058441748.3,8075489271655.2,6.0909299239963e-05,8075489272147.8,0.0021223314450276,8074997429220.4,917.33719041381,2.760775551328,2760775.5516416
0.00307,2.8020482502323e-11,1.7219925889542e-05,0.00047472209365999,2.802e-11,0,378996955324.16,1.3693695834968e-08,378996955324.09,0.00052284301479684,378996950134.29,6677711448384.6,1.0851440593353e-06,6677711448392.5,0.0021223314450276,6677704202113.5,804.68959652468,14.332827502161,14332827.50217
0.00308,8.0641705399909e-11,2.1148312365267e-05,0.00047472209365999,8.064e-11,0,406591108430.52,4.6835544147497e-08,406591108430.46,0.00052284301479684,406591089387.61,6215580717063.6,4.1547860487847e-06,6215580717090,0.0021223314450276,6215554892762.8,844.89021029631,18.531997829892,18531997.829911
0.00309,1.9943643136049e-10,1.7893298786065e-05,0.00047472209365999,1.9944e-10,0,590393029953.36,2.2919874258556e-07,590393029953.3,0.00052284301479684,590392894636.05,7305462626972.2,1.0295380653055e-05,7305462627048.2,0.0021223314450276,7305387415228,834.45812163833,19.709788400448,19709788.400447
0.0031,8.1217566440896e-08,4.4868264407497e-07,0.00047472209365999,8.121753e-08,0,451767808113.45,8.4351478713933e-05,451767808113.45,0.00052284301479684,451729704044.94,9040867846548,0.00088208529303432,9040867854516.7,0.0021223314450276,9032900058253.2,947.40776692921,21.127992986269,21127992.986277
0.00311,1.9867649871056e-10,1.7622757414741e-05,0.00047472209365999,1.9868e-10,0,715892394891.38,2.8458781295525e-07,715892394891.32,0.00052284301479684,715892191157.19,8762467404837,1.1572697979556e-05,8762467404939.3,0.0021223314450276,8762366000621.7,816.86501594704,7.5735901453065,7573590.1453206
0.00312,2.8333940706909e-09,2.0926480738566e-06,0.00047472209365999,2.8334e-09,0,516975673984.57,3.0773016855072e-06,516975673984.56,0.00052284301479684,516974083099.35,5672390682206.2,7.3680259876798e-05,5672390682624.7,0.0021223314450276,5671972769778.5,928.27592862493,32.518203862381,32518203.862582
0.00313,2.2537227606747e-08,1.2249413113011e-06,0.00047472209365999,2.25372e-08,0,567261839542.3,2.7046381392128e-05,567261839542.3,0.00052284301479684,567246497577.18,9752150933827.6,0.00033154825309633,9752150937060.8,0.0021223314450276,9748918696864.1,865.97623699011,37.970077928841,37970077.928859
0.00314,8.7551098351273e-09,1.1610203747298e-06,0.00047472209365999,8.75512e-09,0,618631074096.41,1.0915325292485e-05,618631074096.41,0.00052284301479684,618624321610.71,6900510195892.7,0.0001692233313214,6900510197060.9,0.0021223314450276,6899342666142.8,927.2506046752,26.714645921226,26714645.921209
0.00315,1.6025225853719e-09,1.613316480088e-06,0.00047472209365999,1.60252e-09,0,753216286492.25,2.296352054434e-06,753216286492.23,0.00052284301479684,753214556846.45,7041089845095,5.2998125981338e-05,7041089845468.9,0.0021223314450276,7040716700304.3,897.19679347858,13.943361169166,13943361.169194
0.00316,5.6702593499878e-10,7.1689350047835e-06,0.00047472209365999,5.6703e-10,0,895148923752.52,8.4833504628284e-07,895148923752.48,0.00052284301479684,895148164366.96,5109813198369.8,2.135660406465e-05,5109813198479.4,0.0021223314450276,5109704072443,885.25438329922,36.719339972332,36719339.972494
0.00317,1.0653476492418e-10,4.4728472582702e-05,0.00047472209365999,1.0653e-10,0,609347941368.87,1.4585286229245e-07,609347941368.8,0.00052284301479684,609347852493.74,8165063206363.7,7.5331967477642e-06,8165063206426,0.0021223314450276,8165001697799.4,842.88115088729,3.4588821051922,3458882.1058008
0.00318,3.1486415359015e-09,4.8779838470247e-07,0.00047472209365999,3.14864e-09,0,813900523731.81,4.7318568656122e-06,813900523731.81,0.00052284301479684,813896672489.25,8626282785181.6,7.9980501825074e-05,8626282785872.3,0.0021223314450276,8625592905932.4,840.81858733902,34.047433943776,34047433.944203
0.00319,6.7194733729985e-11,7.04528945501e-05,0.00047472209365999,6.719e-11,0,635920260359.64,1.5991122487818e-08,635920260359.53,0.00052284301479684,635920250190.57,5200302843015,1.2969478194692e-06,5200302843022.2,0.0021223314450276,5200296098502.3,813.54558933181,39.984038337618,39984038.337615
0.0032,8.2951191166176e-11,1.4360050343183e-05,0.00047472209365999,8.295e-11,0,680963398678.35,3.3284857481791e-08,680963398678.24,0.00052284301479684,680963376012.58,5342842418018,2.2673017036367e-06,5342842418030.7,0.0021223314450276,5342830304209.8,821.35017684538,39.705142047049,39705142.435955
0.00321,1.3023391573674e-10,3.0067854840473e-05,0.00047472209365999,1.3023e-10,0,921072903200.35,1.4583899894349e-07,921072903200.24,0.00052284301479684,921072768872.02,5151119587590.1,5.6022555046799e-06,5151119587619.5,0.0021223314450276,5151090729863.7,851.00730821209,30.106253406301,30106253.406305
0.00322,1.1753779167095e-10,1.8787893950901e-05,0.00047472209365999,1.1754e-10,0,657115311151.24,1.7086968477914e-07,657115311151.17,0.00052284301479684,657115198870.17,6078034762123.8,7.985883817919e-06,6078034762172.9,0.0021223314450276,6077986224032,894.42581938146,3.9811318188582,3981131.8190782
0.00323,3.5759552054761e-09,1.4556904027511e-06,0.00047472209365999,3.57595e-09,0,792445665440.39,5.0196029397171e-06,792445665440.39,0.00052284301479684,792441687697.77,8449449950596.4,8.4255293312975e-05,8449449951309.1,0.0021223314450276,8448738099689.7,834.61776333567,47.004848563406,47004848.565106
0.00324,2.8832034133454e-09,1.1838739725941e-06,0.00047472209365999,2.8832e-09,0,528649623045.76,3.1636573364847e-06,528649623045.75,0.00052284301479684,528647950584.79,8817881670208.8,7.2855762160272e-05,8817881670852.1,0.0021223314450276,8817239283520.7,831.88666936934,43.630208278605,43630208.278631
0.00325,3.105497707536e-08,9.4176192911742e-08,0.00047472209365999,3.105498e-08,0,975824704675.05,5.2251768647607e-05,975824704675.05,0.00052284301479684,975773718772.44,6843406539997.4,0.00042229410621869,6843406542886.8,0.0021223314450276,6840517829634.5,944.04893099678,31.479875743987,31479875.743996
0.00326,1.913894296457e-10,2.9800631956077e-06,0.00047472209365999,1.9139e-10,0,318029084009.3,9.7766636070247e-08,318029084009.26,0.00052284301479684,318029052916.67,6400856254642.4,1.1056857905162e-05,6400856254713.9,0.0021223314450276,6400785482066.9,888.64134493523,9.136359413403,9136359.4135448
0.00327,3.4880836141876e-11,2.3971957442651e-05,0.00047472209365999,3.488e-11,0,414277504837.51,1.553461848188e-08,414277504837.43,0.00052284301479684,414277498401.86,5937762920268.2,1.7696321314537e-06,5937762920279.3,0.0021223314450276,5937752412630.7,838.81453681344,12.145406186645,12145406.186652
0.00328,6.939905655826e-10,8.1497225736084e-07,0.00047472209365999,6.9399e-10,0,436565311656.48,6.3200852200189e-07,436565311656.46,0.00052284301479684,436565035743.65,5389227384469.5,2.7834553333973e-05,5389227384620.1,0.0021223314450276,5389077381907.7,920.21248849506,21.47398568281,21473985.682809
0.00329,3.2927840595987e-08,9.2918378381667e-07,0.00047472209365999,3.292781e-08,0,721777255373.2,4.9509115402518e-05,721777255373.2,0.00052284301479684,721741522588.87,9410710223090.1,0.00045182855930378,9410710227341.1,0.0021223314450276,9406460115767.8,899.82566222685,23.4954371968,23495437.196804
0.0033,1.5257542884231e-10,2.9959088310854e-05,0.00047472209365999,1.5258e-10,0,385949110659.86,9.0145473509817e-08,385949110659.81,0.00052284301479684,385949075868.3,7288170931373.9,7.2519520882382e-06,7288170931427.5,0.0021223314450276,7288118078290.8,824.23055039017,26.387684117283,26387684.117267
0.00331,1.0337799041846e-09,9.2684516433753e-08,0.00047472209365999,1.03378e-09,0,394993886819.58,7.5652661617214e-07,394993886819.56,0.00052284301479684,394993587996.42,7571147418105.8,3.407977998403e-05,7571147418364.6,0.0021223314450276,7570889403860.7,848.30540598592,40.75866991736,40758669.917386
0.00332,2.8133898178672e-09,6.4737839718467e-08,0.00047472209365999,2.81339e-09,0,307904877938.66,1.0721774070253e-06,307904877938.65,0.00052284301479684,307904547810.36,7361687160800.3,7.0883365224604e-05,7361687161322.8,0.0021223314450276,7361165376626.4,872.91566139002,47.953143150627,47953143.150654
0.00333,1.9450492211863e-10,2.5306522526401e-05,0.00047472209365999,1.945e-10,0,645907888427.96,2.0986588161677e-07,645907888427.9,0.00052284301479684,645907752873.96,7507047080586.1,8.6753747814406e-06,7507047080652,0.0021223314450276,7506981954704.2,808.5515189384,31.951912874021,31951912.874076
0.00334,6.9572573204257e-11,3.6987268322187e-05,0.00047472209365999,6.957e-11,0,730857892357.5,6.3925245004338e-08,730857892357.39,0.00052284301479684,730857845637.23,5083416626646.6,3.2705055341839e-06,5083416626663.7,0.0021223314450276,5083400001358.8,856.68220003907,20.106740736044,20106740.736058
0.00335,1.1020244355387e-07,1.2299064340955e-07,0.00047472209365999,1.1020243e-07,0,699431959707.8,0.00014303366147012,699431959707.8,0.00052284301479684,699331931701.03,8126926669170.3,0.00099809464939278,8126926677274.5,0.0021223314450276,8118823315060.2,931.79948794591,49.864208919073,49864208.919461
0.00336,8.7805098077343e-09,2.1896867924086e-08,0.00047472209365999,8.78051e-09,0,579886524584.52,1.1446109581246e-05,579886524584.52,0.00052284301479684,579879887215.79,7921911705325.3,0.00017547376340249,7921911706716,0.0021223314450276,7920521861546.2,910.04048029203,21.81657699546,21816576.995764
0.00337,1.3294179746687e-09,1.5234698392228e-06,0.00047472209365999,1.32942e-09,0,926249333702.72,2.1178333704726e-06,926249333702.7,0.00052284301479684,926247372065.12,5401096639793.6,4.4234515328582e-05,5401096640033.1,0.0021223314450276,5400857735469.3,913.64620335997,24.056082603396,24056082.603417
0.00338,7.6560535804115e-09,1.773816681228e-06,0.00047472209365999,7.65604e-09,0,887703138938.62,1.2658620299303e-05,887703138938.62,0.00052284301479684,887691901983.89,9349761287873.7,0.00016217636755625,9349761289390.7,0.0021223314450276,9348245223420.3,892.81739590079,6.923366319946,6923366.3199771
0.00339,2.3785136209025e-10,5.726677517654e-06,0.00047472209365999,2.3785e-10,0,442707217285.27,1.9273539080913e-07,442707217285.22,0.00052284301479684,442707131959.93,8014728717082.9,1.0731988306236e-05,8014728717169.7,0.0021223314450276,8014642704031.1,809.59865706738,30.741551086604,30741551.086769
0.0034,1.1383878768609e-08,1.6487033889475e-06,0.00047472209365999,1.138386e-08,0,810410322526.31,1.7334130044733e-05,810410322526.31,0.00052284301479684,810396275011.89,9936625051455.2,0.0002177752006188,9936625053619.7,0.0021223314450276,9934461572093.3,863.68327747327,16.130594124486,16130594.124525
0.00341,7.0811721326739e-10,3.9353959885939e-06,0.00047472209365999,7.0812e-10,0,668845805446.71,8.2362067972763e-07,668845805446.68,0.00052284301479684,668845254571.92,6765578178543.3,2.4699480330955e-05,6765578178711.1,0.0021223314450276,6765411076405.5,845.43790932886,44.957477782828,44957477.783154
0.00342,2.5449401321369e-09,5.1921431389284e-08,0.00047472209365999,2.54494e-09,0,954468960696.07,3.8245203947443e-06,954468960696.06,0.00052284301479684,954465310324.03,8248335379333.1,6.5314757793482e-05,8248335379872.6,0.0021223314450276,8247796676490.8,825.77337792185,46.531622296087,46531622.296078
0.00343,2.2784209964186e-09,3.9516603214001e-06,0.00047472209365999,2.27843e-09,0,543953060126.15,2.6061443646185e-06,543953060126.15,0.00052284301479684,543951642509.65,5295450550179.1,6.1242227096311e-05,5295450550503.9,0.0021223314450276,5295126264853.8,921.93041559732,41.10016120566,41100161.205655
0.00344,2.2554445608977e-08,1.1354305246075e-06,0.00047472209365999,2.255442e-08,0,625098632690.06,3.1678502208762e-05,625098632690.06,0.00052284301479684,625078831128.93,9521351423239.1,0.00035272572627665,9521351426597.3,0.0021223314450276,9517994181828.6,916.930450572,9.9067723343376,9906772.3348149
0.00345,5.6325119504251e-10,2.1216910878701e-06,0.00047472209365999,5.6325e-10,0,949019639792.55,9.357638193339e-07,949019639792.52,0.00052284301479684,949018751735.14,6005718868831.8,2.5542563699748e-05,6005718868985.8,0.0021223314450276,6005565471293.2,932.04296868914,2.9733496524043,2973349.652411
0.00346,1.6806954818912e-10,2.6882303926145e-06,0.00047472209365999,1.6807e-10,0,497210854490.29,1.6201294552331e-07,497210854490.23,0.00052284301479684,497210773935.71,5035972945588.4,7.9971680528222e-06,5035972945629.2,0.0021223314450276,5035932672388.5,887.12609647752,24.15690943817,24156909.438234
0.00347,2.2635145667422e-10,6.43549468856e-06,0.00047472209365999,2.2635e-10,0,333972069670.04,9.839970749223e-08,333972069670,0.00052284301479684,333972036807.29,7717364893936.3,9.8383144570084e-06,7717364894013,0.0021223314450276,7717288968820.6,816.21715413955,33.357492945902,33357492.945914
0.00348,4.3805470360788e-10,1.2090563210313e-05,0.00047472209365999,4.3806e-10,0,462013311068.86,4.1094566718885e-07,462013311068.83,0.00052284301479684,462013121206.57,5546965113753.2,1.8001516849873e-05,5546965113853.6,0.0021223314450276,5546865261764.8,891.49757708611,29.400567428411,29400567.42843
0.00349,1.2444669694013e-10,2.654126052774e-05,0.00047472209365999,1.2445e-10,0,336075354816.91,3.6098390601257e-08,336075354816.86,0.00052284301479684,336075342685.14,6563668490102.7,4.7799473835646e-06,6563668490134.7,0.0021223314450276,6563637116262.6,823.32153853617,36.285505380959,36285505.380958
0.0035,3.4562533660393e-09,9.7389925255385e-07,0.00047472209365999,3.45625e-09,0,839593405643.58,5.5340349551867e-06,839593405643.57,0.00052284301479684,839588759330.03,9495044878074.3,9.1779111756172e-05,9495044878946.7,0.0021223314450276,9494173511262.6,840.17776840568,17.155145539791,17155145.539851
0.00351,4.4352542863095e-08,7.409523182401e-07,0.00047472209365999,4.435251e-08,0,877706633902,6.6871569943188e-05,877706633902,0.00052284301479684,877647944206.11,8337551066619.9,0.00052519239521734,8337551070997.3,0.0021223314450276,8333174546720,904.08329017443,44.013313499639,44013313.499895
0.00352,3.2078844367573e-08,4.4788331199646e-07,0.00047472209365999,3.207883e-08,0,326452190699.9,1.7891981010316e-05,326452190699.9,0.00052284301479684,326446349928.01,9366145232771.1,0.000451842348593,9366145237002.1,0.0021223314450276,9361915123054.6,924.888935627,16.472446348466,16472446.348742
0.00353,2.9746917559937e-09,2.7713740279628e-06,0.00047472209365999,2.9747e-09,0,834661693364.82,4.2574158827835e-06,834661693364.81,0.00052284301479684,834658139877.99,5862114207088.2,7.4799536917518e-05,5862114207527.2,0.0021223314450276,5861675756456,905.45081726014,38.357832815691,38357832.815819
0.00354,7.3025094344535e-09,1.291948448306e-06,0.00047472209365999,7.3025e-09,0,404261363536.16,6.2017221529233e-06,404261363536.16,0.00052284301479684,404258856435.06,9697846563663.9,0.00015646859536375,9697846565182.1,0.0021223314450276,9696329392623.7,902.10392912119,5.8972445834914,5897244.5840507
0.00355,2.9895152570354e-07,1.2567388947013e-06,0.00047472209365999,2.9895115e-07,0,996892634350.42,0.000482774019577,996892634350.43,0.00052284301479684,996411592720.65,9158772611067.4,0.002056673033969,9158772629866.3,0.0021223314450276,9139974671629.1,935.66387856867,41.852821901906,41852821.90273
0.00356,1.3906224633641e-09,1.7714142537689e-06,0.00047472209365999,1.39062e-09,0,301020472345.65,5.4046853998116e-07,301020472345.64,0.00052284301479684,301020309653.65,7407258944567.7,4.7210558832342e-05,7407258944918.1,0.0021223314450276,7406909260242.3,919.36394849712,6.7323986439467,6732398.6446964
0.00357,9.4420989949446e-11,1.0484531305354e-05,0.00047472209365999,9.442e-11,0,889862570404.38,1.2349206301657e-07,889862570404.27,0.00052284301479684,889862460513.42,5708354414951.7,5.4307959482048e-06,5708354414983.2,0.0021223314450276,5708323414212,853.54214304852,15.070135226784,15070135.22678
0.00358,9.1419653199114e-11,3.7934903263227e-06,0.00047472209365999,9.142e-11,0,494971912586.67,8.0388259772034e-08,494971912586.6,0.00052284301479684,494971872796.74,5841568132069.1,5.0617664004399e-06,5841568132099.3,0.0021223314450276,5841538563565.5,861.41637765004,15.69116107855,15691161.078542
0.00359,2.3332922367452e-09,9.5862288917907e-07,0.00047472209365999,2.33329e-09,0,508013338164.94,2.5918864687545e-06,508013338164.93,0.00052284301479684,508012021455.46,7669671681685.6,6.6970436715096e-05,7669671682200,0.0021223314450276,7669158074820.1,878.76554391716,27.019104339208,27019104.339191
0.0036,3.2421257483901e-11,3.8787288743394e-05,0.00047472209365999,3.242e-11,0,375461022166.81,1.1197431678775e-08,375461022166.74,0.00052284301479684,375461017962.61,6374416763357.5,1.0191309947219e-06,6374416763364.6,0.0021223314450276,6374410266998.4,806.5478533206,18.05516709603,18055167.096046
0.00361,2.1514808129427e-10,8.9179908435176e-06,0.00047472209365999,2.1515e-10,0,352562273894.62,1.0517274483619e-07,352562273894.57,0.00052284301479684,352562236814.68,7470298282537.6,9.1455806437796e-06,7470298282606.7,0.0021223314450276,7470229962947.1,818.76526804719,34.748255069377,34748255.069441
0.00362,2.9842643014628e-10,1.19621141279e-05,0.00047472209365999,2.9843e-10,0,552947532825.09,3.7647793560795e-07,552947532825.05,0.00052284301479684,552947324652.62,7068996411816.2,1.6776116121096e-05,7068996411935.5,0.0021223314450276,7068877823501,907.50368230202,2.2688507881954,2268850.7887443
0.00363,3.8172816286377e-11,7.3782718802664e-05,0.00047472209365999,3.817e-11,0,549312321410.98,1.5252816767097e-08,549312321410.88,0.00052284301479684,549312313032.42,6128855845431.4,1.0795658635098e-06,6128855845438.6,0.0021223314450276,6128849228935,803.59729513356,22.231876382388,22231876.38245
0.00364,2.3487852634548e-09,2.2409313880246e-06,0.00047472209365999,2.34878e-09,0,359755549807.14,1.5863114095866e-06,359755549807.14,0.00052284301479684,359754979123.72,9824250442502.3,6.6385077863953e-05,9824250443155.4,0.0021223314450276,9823598302164.1,811.87583832869,33.167841923859,33167841.923862
0.00365,4.2633079264696e-08,2.09379393273e-06,0.00047472209365999,4.263299e-08,0,958020964593.59,6.4002074946094e-05,958020964593.59,0.00052284301479684,957959653188.07,9977696683377.9,0.00055503857125123,9977696688913.8,0.0021223314450276,9972161748968.5,901.99383565662,13.223931317137,13223931.317207
0.00366,4.871810667706e-07,1.3070529036091e-06,0.00047472209365999,4.8718043e-07,0,872338737379.45,0.00079499148956625,872338737379.45,0.00079499148956625,871645786397.35,9748685456053.6,0.002958614838718,9748685484812.2,0.002958614838718,9719927933039.7,939.89415996609,41.80676162462,41806761.624937
0.00367,4.7054153650894e-10,3.2654162055004e-06,0.00047472209365999,4.7054e-10,0,830566227859.51,6.7784177172375e-07,830566227859.48,0.00079499148956625,830565664867.41,7893359490268.2,1.9517408773832e-05,7893359490423.1,0.002958614838718,7893205435351.2,820.09483064559,27.921477274718,27921477.274735
0.00368,8.0040757759473e-10,3.0264555229972e-06,0.00047472209365999,8.0041e-10,0,687111312778.04,1.0623767803903e-06,687111312778.02,0.00079499148956625,687110582807.71,8745054952007.3,2.9868517461959e-05,8745054952269.3,0.002958614838718,8744793757982.2,812.68974337577,28.773162180724,28773162.180734
0.00369,2.4731658523033e-09,1.6770770793015e-06,0.00047472209365999,2.47317e-09,0,483770185865.89,2.4256359903268e-06,483770185865.89,0.00079499148956625,483769012418.36,8511350048942.7,6.4626815136502e-05,8511350049493.6,0.002958614838718,8510800023043,836.29698355396,45.287315687308,45287315.687336
0.0037,1.9031032050701e-10,1.684131221891e-06,0.00047472209365999,1.9031e-10,0,342705609561.27,1.1931265976642e-07,342705609561.23,0.00079499148956625,342705568672.16,7139313473210.6,1.0814891749139e-05,7139313473288.5,0.002958614838718,7139236263143.2,861.80676131925,11.58650252875,11586502.52938
0.00371,4.0873046273613e-09,1.1321315430597e-06,0.00047472209365999,4.0873e-09,0,675659267915.33,6.0045610363172e-06,675659267915.33,0.00079499148956625,675655210902.38,8912384113481.5,0.00010382001854213,8912384114407.6,0.002958614838718,8911458925650.6,876.62334839846,12.988823149552,12988823.149562
0.00372,1.0826593309757e-08,3.0570633464691e-07,0.00047472209365999,1.082659e-08,0,596551348239.46,1.4315852870786e-05,596551348239.46,0.00079499148956625,596542808220.39,8985700984657.2,0.00019624615015097,8985700986421.2,0.002958614838718,8983937921427,870.87940734172,34.243009756475,34243009.756577
0.00373,7.9340728443376e-10,3.422651897555e-06,0.00047472209365999,7.9341e-10,0,476700605434.58,7.1219268650992e-07,476700605434.56,0.00079499148956625,476700265932.14,5629293339760.2,2.6391858147396e-05,5629293339909.3,0.002958614838718,5629144776169.8,879.75850376389,48.578867506495,48578867.506526
0.00374,7.3775343367264e-09,5.8782904725105e-07,0.00047472209365999,7.37753e-09,0,586162933911.36,9.8302610752869e-06,586162933911.36,0.00079499148956625,586157171833.33,9583937228862.9,0.00015827722592938,9583937230380.5,0.002958614838718,9582420549920.6,867.15322089124,17.582060319044,17582060.319509
0.00375,2.6823764875718e-07,1.2629010635943e-06,0.00047472209365999,2.6823731e-07,0,982640291440.24,0.00042812470863508,982640291440.24,0.00079499148956625,982219778883.59,9139503644460.8,0.0019048835368989,9139503661838.3,0.002958614838718,9122127054812.6,930.29215455719,44.4427770849,44442777.085145
0.00376,5.21834487308e-10,1.0563950627281e-05,0.00047472209365999,5.2184e-10,0,432653664537.89,4.406130623986e-07,432653664537.87,0.00079499148956625,432653473905.12,6872252721724.5,2.0333400959511e-05,6872252721864.9,0.002958614838718,6872112988295.6,854.55368540645,35.291079891955,35291079.891969
0.00377,2.016924431604e-08,2.1972135883014e-06,0.00047472209365999,2.01692e-08,0,967439515788.89,3.2732052096379e-05,967439515788.89,0.00079499148956625,967407850544.73,9884961876431.1,0.00032509093838794,9884961879644.6,0.002958614838718,9881749409242.7,868.66195639211,20.590686817332,20590686.81737
0.00378,1.1473906130973e-08,1.2087435852354e-06,0.00047472209365999,1.147392e-08,0,853040192663.3,1.7650103384411e-05,853040192663.3,0.00079499148956625,853025136681.45,6306213052516.7,0.00020581868065503,6306213053815,0.002958614838718,6304915383150.9,938.97959529043,28.908937784042,28908937.784039
0.00379,3.3533495528952e-08,7.6129764613981e-07,0.00047472209365999,3.353347e-08,0,847186502097.18,5.5828515071407e-05,847186502097.18,0.00079499148956625,847139207573.16,8869822177411.5,0.00047123905169975,8869822181590.3,0.002958614838718,8865644339580.2,934.72655508111,10.890381334389,10890381.334429
0.0038,1.0684081689169e-08,1.5810151289861e-07,0.00047472209365999,1.068408e-08,0,764297517225.1,1.5083111966437e-05,764297517225.1,0.00079499148956625,764285989413.95,8554553426777.3,0.00018730276344049,8554553428380.2,0.002958614838718,8552951435337.9,858.75163085685,49.260569037201,49260569.038268
0.00381,1.7867285001755e-08,8.3942427115895e-07,0.00047472209365999,1.78673e-08,0,693279393638.76,2.5316075273833e-05,693279393638.76,0.00079499148956625,693261842969.76,6636467911438.9,0.00028604474359256,6636467913337.4,0.002958614838718,6634570127528,949.28338813776,27.706894409706,27706894.409819
0.00382,1.4998610168051e-09,6.7793337000257e-07,0.00047472209365999,1.49986e-09,0,819773165890.92,2.167935779897e-06,819773165890.91,0.00079499148956625,819771388679.19,6170952456846.4,4.834977727621e-05,6170952457145.4,0.002958614838718,6170654107094.7,898.63474359918,24.609056049322,24609056.049314
0.00383,1.8331119902765e-10,6.5409833153512e-06,0.00047472209365999,1.8331e-10,0,863974704368.23,1.6625927186053e-07,863974704368.14,0.00079499148956625,863974560724.45,5560736022114.8,6.5270879999428e-06,5560736022151.7,0.002958614838718,5560699726938.3,828.91228026942,47.327034294336,47327034.294461
0.00384,4.3888873476838e-10,2.8827989271072e-06,0.00047472209365999,4.3889e-10,0,520291481983.73,4.7928285926017e-07,520291481983.7,0.00079499148956625,520291232617.06,6477108576367.2,1.9339098165933e-05,6477108576493.1,0.002958614838718,6476983317351,873.64884944855,22.86332481989,22863324.82008
0.00385,6.1392787152883e-10,3.4669606730306e-06,0.00047472209365999,6.1393e-10,0,740612739207.61,7.8026441304095e-07,740612739207.58,0.00079499148956625,740612161334.3,6708008820730.4,2.2650889561021e-05,6708008820883,0.002958614838718,6707856881805,847.8088591343,39.029612524753,39029612.52479
0.00386,9.586486169682e-08,6.4358158285028e-07,0.00047472209365999,9.58648e-08,0,561900445129.66,0.00012349510652519,561900445129.66,0.00079499148956625,561831061742.84,9214238520944.1,0.00097249968806522,9214238529897.2,0.002958614838718,9205286382808.3,937.32738738478,25.513462590369,25513462.590377
0.00387,7.1724039919927e-11,5.632905642989e-05,0.00047472209365999,7.172e-11,0,936109480644.04,9.7704168950692e-08,936109480643.92,0.00079499148956625,936109389182.25,5493498437487,4.4259390685351e-06,5493498437511.9,0.002958614838718,5493474123705.3,857.83725322724,11.666976797632,11666976.797646
0.00388,1.4585902535082e-08,1.7380358598691e-07,0.00047472209365999,1.45859e-08,0,798953292761.42,2.0580670921165e-05,798953292761.42,0.00079499148956625,798936850105.02,7645250952869.3,0.00023527186331123,7645250954668.4,0.002958614838718,7643452663519,895.44990021469,43.279758531964,43279758.532476
0.00389,2.2871986048405e-10,6.099858058003e-07,0.00047472209365999,2.2872e-10,0,422092675781.11,2.2448520782055e-07,422092675781.07,0.00079499148956625,422092581027.57,7191059428412.3,1.2972320746339e-05,7191059428506.3,0.002958614838718,7190966144893,882.38833162669,5.3917178539247,5391717.8549383
0.0039,2.8265462654412e-09,1.3212428028909e-06,0.00047472209365999,2.82655e-09,0,760498382212.34,3.860329225101e-06,760498382212.33,0.00079499148956625,760495446449.54,5778039143049.4,7.1909271972355e-05,5778039143465.5,0.002958614838718,5777623678337,908.67228885637,38.628975115198,38628975.11579
0.00391,6.3650616370568e-10,6.0270762760105e-06,0.00047472209365999,6.3651e-10,0,742863343149.56,8.9403540095929e-07,742863343149.53,0.00079499148956625,742862679004.03,5970678720712,2.7129356077672e-05,5970678720874.5,0.002958614838718,5970516744437.2,911.10642823646,10.250069820759,10250069.82108
0.00392,8.3939486283113e-09,1.6341397512204e-07,0.00047472209365999,8.39395e-09,0,788157877101.45,1.3113996616383e-05,788157877101.45,0.00079499148956625,788147541337.26,7957759714583.1,0.00017449858030242,7957759715972.3,0.002958614838718,7956371339080.1,942.93181092379,5.2918054603642,5291805.4603775
0.00393,1.5152654312466e-09,3.5843660976803e-06,0.00047472209365999,1.51526e-09,0,605109756607.44,1.9301926486549e-06,605109756607.43,0.00079499148956625,605108588631.29,9054757973029,4.8962161455099e-05,9054757973473.2,0.002958614838718,9054314654213,827.20334722703,25.756705818524,25756705.818589
0.00394,5.6195708264248e-08,3.0887619731741e-08,0.00047472209365999,5.619571e-08,0,904866837230.03,8.6674983652997e-05,904866837230.03,0.00079499148956625,904788414708.98,7218431583658,0.00063083079890628,7218431588209.5,0.002958614838718,7213880845441.1,946.77198110882,35.855901834214,35855901.834214
0.00395,7.8383232634356e-11,4.1243102272658e-05,0.00047472209365999,7.838e-11,0,776160811827.31,1.1992240499971e-07,776160811827.21,0.00079499148956625,776160718748.25,8276666082410,5.3759885307968e-06,8276666082455.4,0.002958614838718,8276621587387.3,801.2915510692,8.6728660226758,8672866.0229427
0.00396,1.4918422598104e-08,1.1664688840804e-06,0.00047472209365999,1.491844e-08,0,367318283030.78,9.0289859944881e-06,367318283030.78,0.00079499148956625,367314966549.09,6991618820427.7,0.00023384868237028,6991618822063,0.002958614838718,6989984221827.7,923.15231533335,45.82657237635,45826572.377316
0.00397,1.4972345973224e-08,1.0668495807522e-06,0.00047472209365999,1.497233e-08,0,990316122173.11,2.4467019609717e-05,990316122173.1,0.00079499148956625,990291892681.95,8472058602798.9,0.00024163403718752,8472058604846.3,0.002958614838718,8470011959614,869.52464134388,42.796489666098,42796489.666105
0.00398,4.9728599438634e-09,1.9996306657501e-06,0.00047472209365999,4.97285e-09,0,914114282900.3,8.1916545691861e-06,914114282900.29,0.00079499148956625,914106794853.19,9601647022201.8,0.00011949280701834,9601647023350,0.002958614838718,9600499831528.2,883.73309303273,4.779724834229,4779724.8352589
0.00399,1.8057022987925e-09,1.273075517071e-06,0.00047472209365999,1.8057e-09,0,611536396894.87,2.0932685882942e-06,611536396894.86,0.00079499148956625,611535116787.62,6912679862820.7,5.1622506860231e-05,6912679863178.2,0.002958614838718,6912323031377.6,867.34551863078,44.460857995866,44460857.997064
0.004,1.2172029218617e-09,2.4004778722542e-06,0.00047472209365999,1.2172e-09,0,716415119711.21,1.7452124270502e-06,716415119711.19,0.00079499148956625,716413869416.82,8773194744229.5,4.3231252391855e-05,8773194744609.7,0.002958614838718,8772815484429.1,841.66059257648,15.859261760113,15859261.760444
0.00401,1.453039833223e-08,5.7343469526962e-07,0.00047472209365999,1.453039e-08,0,525527729332.77,1.8817197948123e-05,525527729332.77,0.00079499148956625,525517840559.54,8931851425603.6,0.0002575946697523,8931851427904.7,0.002958614838718,8929551220805.8,924.12802535653,9.6153011098271,9615301.109841
0.00402,7.1376188732811e-08,1.578563844415e-07,0.00047472209365999,7.13762e-08,0,393153619845.11,5.4005503058545e-05,393153619845.11,0.00079499148956625,393132388532.7,8337070833192,0.00073226646143315,8337070839293.3,0.002958614838718,8330970343018.6,926.03901950573,49.264931726082,49264931.727309
0.00403,1.0894470301889e-09,2.7259728226069e-06,0.00047472209365999,1.08945e-09,0,860462397539.48,1.5809357142887e-06,860462397539.46,0.00079499148956625,860461037205.89,7103514537482.2,3.681746129547e-05,7103514537744.4,0.002958614838718,7103253013739.3,854.98318173891,33.0897039613,33089703.961329
0.00404,3.2531387698263e-10,1.1917809554711e-05,0.00047472209365999,3.2531e-10,0,631541622812.61,4.1713000723531e-07,631541622812.57,0.00079499148956625,631541359377.76,5957410993575.8,1.5920462603901e-05,5957410993671.2,0.002958614838718,5957316150346.8,886.38930635084,16.266192852019,16266192.852049
0.00405,6.5243356263155e-08,4.025416049174e-07,0.00047472209365999,6.524333e-08,0,966080494534.01,0.00010551737553052,966080494534.01,0.00079499148956625,965978567010.8,7666896223857.5,0.00070831628187319,7666896229285.1,0.002958614838718,7661469480281.6,940.79131921426,33.372042105579,33372042.105642
0.00406,2.8648537120808e-10,1.6156905711875e-05,0.00047472209365999,2.8649e-10,0,992851252121.36,4.9072269228325e-07,992851252121.3,0.00079499148956625,992850764906.96,8561769802017.6,1.5038874668613e-05,8561769802147.2,0.002958614838718,8561641044571,840.18371230405,3.8462848881096,3846284.8884799
0.00407,2.4552810973932e-09,4.4695234965137e-07,0.00047472209365999,2.45528e-09,0,667338354224.11,3.2802865179695e-06,667338354224.1,0.00079499148956625,667336165170.28,7214811442396.2,7.1363829429638e-05,7214811442911.8,0.002958614838718,7214296602564,921.35597055335,7.9779151587342,7977915.1587175
0.00408,2.0881831602531e-09,1.5134007042212e-06,0.00047472209365999,2.08818e-09,0,922903917490.93,3.3670455239527e-06,922903917490.92,0.00079499148956625,922900810041.89,9168800287593.7,6.0911147574868e-05,9168800288153.1,0.002958614838718,9168241839462,817.52506400569,27.635890305607,27635890.305698
0.00409,7.6307741031538e-10,3.3937262415361e-06,0.00047472209365999,7.6308e-10,0,575519860470.41,8.7418414159541e-07,575519860470.39,0.00079499148956625,575519357360.51,8861241338725.6,2.8085849760552e-05,8861241338975.4,0.002958614838718,8860992470222.4,804.33144058501,34.900245317531,34900245.317538
0.0041,3.7500253762462e-10,6.7669989809144e-06,0.00047472209365999,3.75e-10,0,625590283238.68,3.8718443342069e-07,625590283238.64,0.00079499148956625,625590041019.95,5319369754071.4,1.3683090387631e-05,5319369754144.7,0.002958614838718,5319296969650.2,863.8320079071,47.921283848333,47921283.848347
0.00411,1.9077917753938e-09,9.3060230682273e-07,0.00047472209365999,1.90779e-09,0,401517192614.96,1.6020937568509e-06,401517192614.95,0.00079499148956625,401516549347.8,8825768813003.9,6.0604895804624e-05,8825768813539.7,0.002958614838718,8825233960619.3,873.50754267093,10.935176302934,10935176.303873
0.00412,3.1607577165906e-10,1.3377439064425e-05,0.00047472209365999,3.1608e-10,0,420350574906.81,3.0359689463145e-07,420350574906.78,0.00079499148956625,420350447289.72,8021115803613.3,1.6676759523263e-05,8021115803747.9,0.002958614838718,8020982039624.7,875.58374125046,4.1446405494264,4144640.5494171
0.00413,5.3615956774852e-11,7.5405168735975e-05,0.00047472209365999,5.362e-11,0,370227158302.92,3.5682207435799e-08,370227158302.86,0.00079499148956625,370227145092.4,7783583168984.4,4.1584984873288e-06,7783583169017.6,0.002958614838718,7783550801100.2,835.90265231846,4.7846182452628,4784618.2452565
0.00414,3.1944502607977e-10,1.5570262100595e-05,0.00047472209365999,3.1945e-10,0,461156141710.18,3.1048526880722e-07,461156141710.14,0.00079499148956625,461155998528.03,5275387348850.5,1.5538468124299e-05,5275387348933,0.002958614838718,5275305378686.1,908.37410794551,18.209706759847,18209706.759879
0.00415,3.5993624486447e-09,6.8030002351648e-07,0.00047472209365999,3.59936e-09,0,675671439073.7,5.1791035704115e-06,675671439073.69,0.00079499148956625,675667939719.46,9875194467037.6,9.2947876628934e-05,9875194467956.3,0.002958614838718,9874276673987.5,820.14967663435,25.06304811546,25063048.11545
0.00416,2.6492274302459e-11,8.5855132459797e-05,0.00047472209365999,2.649e-11,0,940790642317.81,1.1429461546393e-08,940790642317.64,0.00079499148956625,940790631565.08,5395124372996.7,9.0435538177305e-07,5395124373002.1,0.002958614838718,5395119493891.4,814.93265146878,14.379994800635,14379994.800631
0.00417,8.4275296151552e-11,5.5812155288687e-05,0.00047472209365999,8.428e-11,0,694899547831.21,2.5532584971766e-08,694899547831.09,0.00079499148956625,694899530088.63,5225464036997.4,1.6689656346564e-06,5225464037006.6,0.002958614838718,5225455315892,807.78040861053,48.617501926042,48617501.926719
0.00418,2.2418679938069e-09,8.9487485534735e-07,0.00047472209365999,2.24187e-09,0,767345775523.14,3.8432505107343e-06,767345775523.13,0.00079499148956625,767342826432.43,5116857878621.2,6.7049666533143e-05,5116857878964.7,0.002958614838718,5116514818008.8,947.58605902881,20.16156432906,20161564.329395
0.00419,1.4799717716261e-08,5.2137919958265e-07,0.00047472209365999,1.479971e-08,0,444929983804.47,1.4819840396533e-05,444929983804.47,0.00079499148956625,444923390110.84,9425115479416.7,0.00025773423150591,9425115481846.2,0.002958614838718,9422686930442,928.19818690399,5.9145720871335,5914572.0871401
0.0042,2.6362095093128e-09,1.8613356120586e-07,0.00047472209365999,2.63621e-09,0,839429757782.87,4.4813074504305e-06,839429757782.86,0.00079499148956625,839425996056.9,5690402382164.1,7.6324370846793e-05,5690402382598.9,0.002958614838718,5689968098928.8,946.69104217152,12.293289604558,12293289.604564
0.00421,7.4959611965417e-10,5.1765552706678e-06,0.00047472209365999,7.496e-10,0,572078735665.01,8.0069574886786e-07,572078735664.99,0.00079499148956625,572078277604.37,5903499599505.7,2.5606920099823e-05,5903499599657.4,0.002958614838718,5903348432934,871.61564866314,45.360087996358,45360087.996963
0.00422,3.0283716791045e-09,2.7476391524028e-06,0.00047472209365999,3.02838e-09,0,661518347886.13,3.8453821948639e-06,661518347886.12,0.00079499148956625,661515804105.04,5489689268749.1,7.4390307884428e-05,5489689269158,0.002958614838718,5489280919451.4,913.38798688132,45.682845352758,45682845.873622
0.00423,4.1403737509378e-10,6.3397406492311e-06,0.00047472209365999,4.1404e-10,0,930986417086.05,6.2230050900029e-07,930986417086,0.00079499148956625,930985837733.09,7400755477023.3,1.7893836849356e-05,7400755477156.4,0.002958614838718,7400623051481.8,829.44708531936,26.033713627499,26033713.627563
0.00424,9.4654000627101e-09,1.0631057058627e-06,0.00047472209365999,9.46539e-09,0,750996196454.46,1.363725547842e-05,750996196454.46,0.00079499148956625,750985955067.14,9314703204572.2,0.0001754290070247,9314703206206.9,0.002958614838718,9313069422051.1,842.26891310356,42.738778642431,42738778.642472
0.00425,1.0373493195156e-09,6.5598342127907e-07,0.00047472209365999,1.03735e-09,0,580753922571.47,1.1551893751915e-06,580753922571.45,0.00079499148956625,580753251691.48,6337646209020.2,3.3872595019136e-05,6337646209235.5,0.002958614838718,6337431543768,872.26958768233,41.94669474399,41946694.74401
0.00426,2.7201147332153e-09,1.9362324799026e-06,0.00047472209365999,2.72012e-09,0,980266094592.36,4.6453222685773e-06,980266094592.35,0.00079499148956625,980261540961.59,5039615607361.5,7.5068712484448e-05,5039615607740.3,0.002958614838718,5039237318304.1,943.66302631265,21.651265034871,21651265.034962
0.00427,8.7825745107385e-10,2.902245515876e-06,0.00047472209365999,8.7826e-10,0,321334431602.59,4.3767716700232e-07,321334431602.57,0.00079499148956625,321334290961.91,6987989388565.9,3.339614378365e-05,6987989388800,0.002958614838718,6987756024461,884.35067581459,22.951155281786,22951155.281782
0.00428,1.897353384217e-10,2.4568242337087e-05,0.00047472209365999,1.8974e-10,0,556047895282.65,1.5946826307213e-07,556047895282.59,0.00079499148956625,556047806610.67,5198486348053.8,7.082988711455e-06,5198486348091.2,0.002958614838718,5198449527494.5,857.64722023807,41.776674181103,41776674.181186
0.00429,5.9183447051133e-11,5.8246893089144e-05,0.00047472209365999,5.918e-11,0,490200270804.27,2.6886363784221e-08,490200270804.19,0.00079499148956625,490200257624.57,5726527118527.9,2.42585186239e-06,5726527118542.3,0.002958614838718,5726513226855.1,836.84889212909,22.088048849769,22088048.849848
0.0043,2.7484833036987e-10,6.0746957775353e-06,0.00047472209365999,2.7485e-10,0,744358089309.77,3.9904950102466e-07,744358089309.72,0.00079499148956625,744357792274.16,6492659865951.6,1.432690004376e-05,6492659866045.3,0.002958614838718,6492566847595.4,869.7495278131,13.410963227947,13410963.227952
0.00431,2.6846666041402e-10,1.2439326479542e-05,0.00047472209365999,2.6847e-10,0,779960198829.54,3.3851052886513e-07,779960198829.48,0.00079499148956625,779959934804.89,6091244983734.4,1.1679325733367e-05,6091244983806.2,0.002958614838718,6091173842931,849.91457208878,31.683654795466,31683654.795523
0.00432,2.9645657513662e-10,1.1552531129906e-05,0.00047472209365999,2.9646e-10,0,973358171543.32,4.216825105232e-07,973358171543.26,0.00079499148956625,973357761095.38,6719684559462.8,1.3273641216055e-05,6719684559552.6,0.002958614838718,6719595365964.8,834.14244411842,28.469681163206,28469681.163202
0.00433,1.1951169541619e-07,9.6573230656397e-07,0.00047472209365999,1.1951158e-07,0,545566110496.5,0.00014481210874203,545566110496.5,0.00079499148956625,545487117356.74,9736394292009,0.0011357706065757,9736394303055.7,0.002958614838718,9725348527013.3,944.94251442719,16.60381135652,16603811.35654
0.00434,2.5992995041581e-08,1.7328383767615e-06,0.00047472209365999,2.599295e-08,0,962481822108.97,4.1989258600974e-05,962481822108.97,0.00079499148956625,962441409907.72,9540978457420.5,0.00036604532365371,9540978460912.6,0.002958614838718,9537487304793.2,858.84097178565,41.285587738004,41285587.738196
0.00435,6.513446070671e-09,9.3202225467728e-07,0.00047472209365999,6.51344e-09,0,957999603787.21,1.0617766725117e-05,957999603787.2,0.00079499148956625,957989432078.89,7353230387958.8,0.00014076132886332,7353230388994.5,0.002958614838718,7352195483152.5,901.57031069898,23.575207299944,23575207.299991
0.00436,2.9017487845273e-09,4.1887576390843e-07,0.00047472209365999,2.90175e-09,0,592912691265.34,3.5672518576266e-06,592912691265.33,0.00079499148956625,592910576203.98,8673328992617.3,7.3900367106229e-05,8673328993259.1,0.002958614838718,8672688077784.6,838.28286027101,39.960026256853,39960026.256899
0.00437,4.9250975114625e-08,1.3220999300312e-06,0.00047472209365999,4.925091e-08,0,887411562167.63,7.8737463070677e-05,887411562167.63,0.00079499148956625,887341695133.68,9479610661563.1,0.00058952560046119,9479610667149.2,0.002958614838718,9474025481002.6,893.49535795672,31.155899856178,31155899.856184
0.00438,2.2681556814447e-09,2.5048805005883e-06,0.00047472209365999,2.26815e-09,0,811962861631.62,3.549102152723e-06,811962861631.61,0.00079499148956625,811959979902.71,8388764887371.6,6.7504084935087e-05,8388764887938.7,0.002958614838718,8388198649697.5,862.03017887775,17.774387816019,17774387.816039
0.00439,1.5162729526553e-08,6.2828787956101e-07,0.00047472209365999,1.516272e-08,0,803466220315.67,2.3535773381144e-05,803466220315.67,0.00079499148956625,803447310561.84,8122996586393.9,0.00025747589028072,8122996588485.7,0.002958614838718,8120905648982,907.39633988242,24.87894423066,24878944.230658
0.0044,2.5535561659906e-08,3.2660691406525e-07,0.00047472209365999,2.553557e-08,0,912968437557.51,3.9499069528782e-05,912968437557.51,0.00079499148956625,912932377578.05,6829939551076.6,0.00035288038602859,6829939553486.5,0.002958614838718,6827530249566.5,933.29028070069,37.268295620379,37268295.620377
0.00441,1.7773934304215e-08,1.9300331010592e-06,0.00047472209365999,1.77739e-08,0,902043920296.61,2.7941038573247e-05,902043920296.6,0.00079499148956625,902018716956.84,9783255749719.9,0.00029822322367672,9783255752637.6,0.002958614838718,9780339025487.1,888.11744136727,11.777032969912,11777032.970112
0.00442,3.3329086011733e-09,2.5806874936803e-06,0.00047472209365999,3.3329e-09,0,826186169598.2,4.8414801871406e-06,826186169598.19,0.00079499148956625,826182169653.59,9147669478557,8.1460488866755e-05,9147669479303.1,0.002958614838718,9146924365626.6,811.00712192979,46.924254627461,46924254.628225
0.00443,1.1535935396932e-10,5.6001272317233e-06,0.00047472209365999,1.1536e-10,0,684827301122.21,1.1112496582657e-07,684827301122.12,0.00079499148956625,684827225020.81,5554414353203.3,5.1458171884401e-06,5554414353232.5,0.002958614838718,5554385771349.5,848.84782860164,27.408535725666,27408535.725743
0.00444,1.4341783246877e-08,1.1681324963491e-06,0.00047472209365999,1.43418e-08,0,387083376612.06,1.0425173109233e-05,387083376612.06,0.00079499148956625,387079341242.92,7063881065993.9,0.00023847431829015,7063881067678.7,0.002958614838718,7062196913399.3,937.14810949545,31.885630210538,31885630.210543
0.00445,1.4700971243997e-09,1.9560575873821e-06,0.00047472209365999,1.4701e-09,0,874951554364.51,1.966398684171e-06,874951554364.49,0.00079499148956625,874949833864.3,6610780363118.1,4.3661618655524e-05,6610780363407.4,0.002958614838718,6610491738348.7,856.33264984335,48.48561014513,48485610.145185
0.00446,1.4790238138385e-09,2.5786253421043e-06,0.00047472209365999,1.47902e-09,0,850191210264.32,2.2467949335762e-06,850191210264.3,0.00079499148956625,850189300063.3,8954232171324.3,4.6996876129418e-05,8954232171746,0.002958614838718,8953811370160.5,815.71061319674,29.065356508285,29065356.508343
0.00447,6.0021796922442e-09,1.7173324728337e-06,0.00047472209365999,6.00219e-09,0,460093962026.41,5.445662981997e-06,460093962026.41,0.00079499148956625,460091456523.4,6281661105523.8,0.00012202492399565,6281661106290.8,0.002958614838718,6280894679827.8,919.058978447,43.037974531621,43037974.531639
0.00448,9.1816675641129e-10,3.5326668396793e-06,0.00047472209365999,9.1817e-10,0,532592246873.54,9.9117785202972e-07,532592246873.52,0.00079499148956625,532591718980.42,7547002748380.4,3.1449890135746e-05,7547002748618.5,0.002958614838718,7546765403437.5,844.97352433949,37.702420938773,37702420.93875
0.00449,1.1410866453202e-08,1.4418910432612e-06,0.00047472209365999,1.141085e-08,0,824734265425.13,1.7124753919192e-05,824734265425.13,0.00079499148956625,824720142295.64,9982556373424.1,0.0002162942668513,9982556375583.8,0.002958614838718,9980397670627.1,845.532838613,25.943372864553,25943372.864554
0.0045,2.1853549664694e-10,2.0606539136711e-05,0.00047472209365999,2.1854e-10,0,316227696203.89,6.1409246664359e-08,316227696203.84,0.00079499148956625,316227676784.59,6554682751346,8.1860480621348e-06,6554682751400.3,0.002958614838718,6554629094837.2,828.46500481386,46.63681340594,46636813.406038
0.00451,9.6054233295475e-09,6.9444601124852e-07,0.00047472209365999,9.60543e-09,0,522877828721.69,1.0804504693578e-05,522877828721.69,0.00079499148956625,522872179346.78,7633003286852.9,0.0001789370744703,7633003288219.2,0.002958614838718,7631637703928.7,905.62522950466,33.692190692004,33692190.692015
0.00452,2.3200922253296e-08,1.3901749275467e-06,0.00047472209365999,2.320089e-08,0,893511000752.32,3.7203754692562e-05,893511000752.32,0.00079499148956625,893477760024.91,9088388683178.4,0.00033868562352834,9088388686256.4,0.002958614838718,9085311618747.9,876.74331371618,35.768402644858,35768402.644853
0.00453,9.2619517456596e-08,5.1238250238933e-07,0.00047472209365999,9.261947e-08,0,770578014170.62,0.00013027166255042,770578014170.62,0.00079499148956625,770477642767.14,8489175499553.6,0.00090474662589603,8489175507228.1,0.002958614838718,8481501889336.7,933.85018677114,35.580235743823,35580235.920849
0.00454,1.0473460432338e-09,3.7778834456425e-06,0.00047472209365999,1.04735e-09,0,729668422020.13,1.510368640341e-06,729668422020.11,0.00079499148956625,729667319953.49,7592291073529.6,3.8548967121474e-05,7592291073823,0.002958614838718,7591998409832.5,864.79637510108,19.078648596017,19078648.596058
0.00455,2.180832406946e-11,7.6842298938209e-05,0.00047472209365999,2.181e-11,0,471115205996.81,1.6818308970535e-08,471115205996.72,0.00079499148956625,471115198073.45,5786186461088.1,1.5560560239056e-06,5786186461097.7,0.002958614838718,5786177457471.8,853.91028169919,5.5129836301533,5512983.6301486
0.00456,4.4812629915538e-10,8.2584174733371e-06,0.00047472209365999,4.4813e-10,0,485893134140.69,4.8045704358598e-07,485893134140.66,0.00079499148956625,485892900690.02,6759773319433.3,2.0995119883729e-05,6759773319575.9,0.002958614838718,6759631400161.7,890.49703340536,10.384650280688,10384650.280702
0.00457,1.183721514375e-09,1.2793354693143e-06,0.00047472209365999,1.18372e-09,0,506959852185.54,1.3642827311032e-06,506959852185.52,0.00079499148956625,506959160549.91,8407532361358.4,4.2629724310492e-05,8407532361717.7,0.002958614838718,8407173965850,882.49821051627,6.6964916725169,6696491.6725091
0.00458,8.4967154263424e-09,1.7152078006627e-06,0.00047472209365999,8.49673e-09,0,638915963550.12,1.0703993012575e-05,638915963550.12,0.00079499148956625,638909124671.32,6187819065059.2,0.00015845622533411,6187819066040.2,0.002958614838718,6186838721948.6,929.68354510957,38.22544522381,38225445.224314
0.00459,3.0525749790866e-10,8.1965909079144e-06,0.00047472209365999,3.0526e-10,0,873985346617.75,4.7028682458724e-07,873985346617.69,0.00079499148956625,873984935594.15,5065239251673.3,1.41446290628e-05,5065239251745.4,0.002958614838718,5065167606756.3,889.08408680201,23.722068893096,23722068.893111
0.0046,4.8234022534302e-09,4.6718709781066e-07,0.00047472209365999,4.8234e-09,0,449819542139.4,4.9431571116543e-06,449819542139.39,0.00079499148956625,449817318621.72,9385190997602.2,0.00012310693589497,9385190998758.4,0.002958614838718,9384035757713.8,922.41425717403,2.2041980240623,2204198.0241528
0.00461,8.8865261738087e-11,5.3316776340697e-05,0.00047472209365999,8.887e-11,0,602487582046.3,8.3952673210863e-08,602487582046.22,0.00079499148956625,602487531465.86,7482077184500.5,4.6775844427126e-06,7482077184536.2,0.002958614838718,7482042186616.3,805.63211052764,20.538227178982,20538227.179039
0.00462,7.4726307966666e-09,1.0661127978702e-07,0.00047472209365999,7.47263e-09,0,740195167699.56,1.1393180046571e-05,740195167699.56,0.00079499148956625,740186734618.83,8098303969039.3,0.00015820093513843,8098303970321.1,0.002958614838718,8097023012426.9,899.86808692379,19.427955542798,19427955.542789
0.00463,1.0505560547134e-10,4.1828751803702e-05,0.00047472209365999,1.0506e-10,0,303427552229.31,2.7887637405198e-08,303427552229.25,0.00079499148956625,303427543767.43,7308083629013.8,5.8185585077739e-06,7308083629057,0.002958614838718,7308041106749,831.42416499848,17.163764729047,17163764.729052
0.00464,2.4565624021195e-08,9.7783874127124e-07,0.00047472209365999,2.45656e-08,0,757927669952.54,3.9960838792747e-05,757927669952.54,0.00079499148956625,757897383737.36,9011350981679.6,0.00037588493513532,9011350985066.5,0.002958614838718,9007965023331.1,916.14678665194,14.795094433854,14795094.433836
0.00465,5.8601819452998e-09,3.3195223037769e-07,0.00047472209365999,5.86018e-09,0,539871374346.66,7.1585283940806e-06,539871374346.66,0.00079499148956625,539867509689.76,9695146584664.7,0.00013503654724686,9695146585974.7,0.002958614838718,9693837562310.8,896.46212957215,4.9790001366232,4979000.1366308
0.00466,1.41003321447e-07,9.3222711293692e-07,0.00047472209365999,1.4100319e-07,0,615458368243.39,0.00018239769256159,615458368243.39,0.00079499148956625,615346130529.05,9602254391365.3,0.0012253329404293,9602254403117.9,0.002958614838718,9590502832329.6,917.88217904759,39.70949830916,39709498.309906
0.00467,7.8338228834116e-10,2.9211125658448e-06,0.00047472209365999,7.8338e-10,0,644692009908.97,1.0130944758803e-06,644692009908.95,0.00079499148956625,644691356775.72,6544528847505.8,3.15042710304e-05,6544528847712.7,0.002958614838718,6544322673390.6,915.1193390286,6.8228918441548,6822891.8447371
0.00468,1.849790562931e-09,3.0432158692613e-07,0.00047472209365999,1.84979e-09,0,313462047513.42,8.678295250185e-07,313462047513.4,0.00079499148956625,313461775482.03,9566374861547.2,5.9479131308916e-05,9566374862117.1,0.002958614838718,9565805895722.3,851.75130314545,11.531353705529,11531353.705509
0.00469,6.199590061027e-10,1.6031635985174e-06,0.00047472209365999,6.1996e-10,0,948906826679.52,8.3814361199137e-07,948906826679.48,0.00079499148956625,948906031359.99,7852621831265.1,2.2025414861397e-05,7852621831438.9,0.002958614838718,7852448877820.9,802.75019544724,45.00410052912,45004100.529728
0.0047,1.3124448178686e-08,1.3877260247336e-07,0.00047472209365999,1.312445e-08,0,704796474195.23,1.856241323248e-05,704796474195.22,0.00079499148956625,704783391714.67,7949432736659.6,0.0002275172909274,7949432738468.6,0.002958614838718,7947624514660.7,904.24915279697,30.079783865628,30079783.865661
0.00471,5.8976005723194e-11,6.7722563690598e-05,0.00047472209365999,5.898e-11,0,354363287723.03,2.8822783141267e-08,354363287722.97,0.00079499148956625,354363277509.29,7826994590209.8,4.1136801247848e-06,7826994590242.8,0.002958614838718,7826962392590.2,822.51570766728,8.342093279704,8342093.2798155
0.00472,3.6652834159634e-09,1.7963207939864e-06,0.00047472209365999,3.66529e-09,0,996419677599.64,6.1912331260728e-06,996419677599.63,0.00079499148956625,996413508571.32,6209977563305.9,9.5596960120676e-05,6209977563900.1,0.002958614838718,6209383965074.6,931.58599563573,13.664505509448,13664505.509453
0.00473,3.0594878293617e-09,7.0947717670846e-07,0.00047472209365999,3.05949e-09,0,687235576216.1,4.0766301273043e-06,687235576216.1,0.00079499148956625,687232774622.27,5878440747726.5,7.9730826771566e-05,5878440748195.8,0.002958614838718,5877972092151.9,925.37615249535,26.891344213587,26891344.213618
0.00474,3.1345866645075e-09,1.0640921090058e-06,0.00047472209365999,3.13459e-09,0,433759772195.6,2.9558402862315e-06,433759772195.6,0.00079499148956625,433758490074.78,8209696844356.1,8.5457804369353e-05,8209696845058.4,0.002958614838718,8208995321639.8,911.76838940687,7.4783741277672,7478374.1278618
0.00475,1.3184438254721e-08,6.2609616851276e-07,0.00047472209365999,1.318443e-08,0,926185859114.24,2.0771884369578e-05,926185859114.24,0.00079499148956625,926166620888.29,8260286344969.5,0.00022245966766547,8260286346807.5,0.002958614838718,8258449173111,878.13908411068,39.148294144313,39148294.144795
0.00476,7.6427134196676e-12,0.00035515964235555,0.00047472209365999,7.64e-12,0,516429835742.64,9.6590537836577e-09,516429835742.54,0.00079499148956625,516429830754.42,7021864542000.7,6.2979661945203e-07,7021864542005.9,0.002958614838718,7021860119657,806.71613655949,2.8096150686364,2809615.0694777
0.00477,6.2250708048505e-11,1.1374273173941e-05,0.00047472209365999,6.225e-11,0,340343206526.58,4.6912837461787e-09,340343206526.51,0.00079499148956625,340343204929.93,5433800015285.1,9.395433865004e-07,5433800015290.7,0.002958614838718,5433794909999,809.78644680425,40.689250529349,40689250.530371
0.00478,1.749248455302e-09,8.8306300929897e-07,0.00047472209365999,1.74925e-09,0,475590787793.03,1.8196407021938e-06,475590787793.02,0.00079499148956625,475589922390.25,6017487537306.5,5.586346244042e-05,6017487537643.2,0.002958614838718,6017151398395.3,938.07213476103,13.004981292523,13004981.292835
0.00479,1.147552182419e-08,1.5838740447788e-06,0.00047472209365999,1.147554e-08,0,413962613488.22,9.4481822019682e-06,413962613488.22,0.00079499148956625,413958702330.98,6439548820132,0.00019938230795064,6439548821416.3,0.002958614838718,6438265143968.3,941.33778443344,36.425013192893,36425013.193027
0.0048,2.4374752514808e-09,2.1544801799719e-06,0.00047472209365999,2.43747e-09,0,794753496171.42,3.4326579342995e-06,794753496171.41,0.00079499148956625,794750768063.89,9208513812090.3,6.533113421103e-05,9208513812692.8,0.002958614838718,9207912248739.4,801.41810258654,47.458866663244,47458866.663281
0.00481,3.5730365746283e-10,1.0236391906425e-05,0.00047472209365999,3.573e-10,0,896602115872.46,5.6641159049922e-07,896602115872.41,0.00079499148956625,896601608026.92,6386432784633.3,1.7754452215885e-05,6386432784747.3,0.002958614838718,6386319399030.7,883.7518571768,9.1161841863378,9116184.1874145
0.00482,2.2114161122885e-09,1.7580158907801e-06,0.00047472209365999,2.21142e-09,0,707991728944.66,3.2363687796e-06,707991728944.65,0.00079499148956625,707989437629.75,7961766191307.6,6.6914717766718e-05,7961766191841.1,0.002958614838718,7961233467617,880.9292536003,15.177191180307,15177191.180305
0.00483,4.5260752062099e-10,5.4779589688105e-06,0.00047472209365999,4.5261e-10,0,496752489545.15,4.5762726919586e-07,496752489545.12,0.00079499148956625,496752262217.77,6671189203730.7,1.8713862603118e-05,6671189203856.2,0.002958614838718,6671064362348.8,860.01967376065,30.445047613492,30445047.613515
0.00484,3.1973720419212e-09,2.4889374399834e-06,0.00047472209365999,3.19738e-09,0,835289254585.53,4.6147160973853e-06,835289254585.52,0.00079499148956625,835285399980.55,5821406223704.3,7.91345939919e-05,5821406224165.5,0.002958614838718,5820945585538.7,909.9201476479,37.000305967734,37000305.967737
0.00485,5.474445646961e-09,1.0315139150325e-06,0.00047472209365999,5.47444e-09,0,561522412209.9,6.7909234156271e-06,561522412209.89,0.00079499148956625,561518598980.09,9294494308351.4,0.00012087333484864,9294494309475.6,0.002958614838718,9293370987608.1,847.03906403536,32.563326897176,32563326.897176
0.00486,7.935576143397e-09,7.7415951014446e-07,0.00047472209365999,7.93557e-09,0,381753902680.52,6.3337750886738e-06,381753902680.51,0.00079499148956625,381751484752.47,8725114449230.2,0.00016466168076522,8725114450667.5,0.002958614838718,8723677993749.2,894.69067398088,20.919989523861,20919989.523888
0.00487,2.11130805546e-09,3.815402819499e-06,0.00047472209365999,2.1113e-09,0,407169720098.46,1.8895023662841e-06,407169720098.45,0.00079499148956625,407168950751.76,9834130170320.2,6.2722827727017e-05,9834130170937.9,0.002958614838718,9833513384554.2,818.49076466375,24.170073447487,24170073.447486
0.00488,1.2847669766891e-08,1.8144104659203e-08,0.00047472209365999,1.284767e-08,0,726276614837.23,1.839075009199e-05,726276614837.23,0.00079499148956625,726263258311.14,8165995650984.5,0.00022164931497476,8165995652794.9,0.002958614838718,8164186064735.9,892.05601204202,34.559137254042,34559137.254053
0.00489,3.4388576186994e-10,1.232408636472e-05,0.00047472209365999,3.4389e-10,0,357387993515.47,1.6327028855058e-07,357387993515.43,0.00079499148956625,357387935164.64,7162005557676,1.2767053699781e-05,7162005557768.2,0.002958614838718,7161914121133.8,821.17889773785,49.649210075207,49649210.075226
0.0049,1.9883194607375e-09,2.7121512448948e-07,0.00047472209365999,1.98832e-09,0,347069548191.2,1.2430041993591e-06,347069548191.2,0.00079499148956625,347069116782.84,7727969045016.5,6.2430275694686e-05,7727969045499.7,0.002958614838718,7727486615896.6,936.34786405851,3.4361683809972,3436168.3832636
0.00491,2.6447065841088e-07,9.3927663928326e-07,0.00047472209365999,2.6447041e-07,0,426764354503.99,0.00024416395099677,426764354503.99,0.00079499148956625,426660179468.83,9919412931180.3,0.0019483602873925,9919412950470.4,0.002958614838718,9900123922888.7,948.56631152445,28.096078599483,28096078.599668
0.00492,7.2526512934342e-10,7.0724201317735e-06,0.00047472209365999,7.2526e-10,0,365210019537.97,4.6322092054603e-07,365210019537.95,0.00079499148956625,365209850365.13,8617700316958.5,2.7590905636483e-05,8617700317197.1,0.002958614838718,8617462553362.3,825.87173137586,29.411954920319,29411954.920308
0.00493,1.2792292710517e-09,5.6983363341902e-07,0.00047472209365999,1.27923e-09,0,653706432100.58,1.6029733619862e-06,653706432100.57,0.00079499148956625,653705384228.26,5600268517467.4,3.9962672369073e-05,5600268517691.8,0.002958614838718,5600044724714.9,897.64236196902,38.908878542605,38908878.542607
0.00494,6.012805542157e-10,9.2172648746966e-07,0.00047472209365999,6.0128e-10,0,596699317051.92,7.4570556931075e-07,596699317051.89,0.00079499148956625,596698872090.24,6893822279455.3,2.4993900539694e-05,6893822279628.3,0.002958614838718,6893649980253.4,868.97678091788,22.283195513217,22283195.513247
0.00495,1.384683686746e-10,1.1781074627299e-05,0.00047472209365999,1.3847e-10,0,329756476555.9,7.263951675907e-08,329756476555.85,0.00079499148956625,329756452602.55,5516733700087.2,8.3728746242018e-06,5516733700133.9,0.002958614838718,5516687509554.3,903.09452770793,9.7222758682388,9722275.8682545
0.00496,4.0590776415361e-10,5.5082318445835e-06,0.00047472209365999,4.0591e-10,0,807783356988.91,5.9873229211024e-07,807783356988.87,0.00079499148956625,807782873343.22,8526645604746.8,1.8792697826296e-05,8526645604907.9,0.002958614838718,8526485369083.8,812.18171739569,18.515428830315,18515428.830335
0.00497,2.1519549413131e-10,2.0938051518287e-05,0.00047472209365999,2.152e-10,0,859671267458.12,2.2506835676949e-07,859671267458.04,0.00079499148956625,859671073973.36,6141817488908.1,8.3296534071923e-06,6141817488959.9,0.002958614838718,6141766330123.3,824.41093185021,43.512658360042,43512658.360226
0.00498,7.8772562940442e-10,5.5483421688734e-06,0.00047472209365999,7.8773e-10,0,783529255867.76,1.0119510883167e-06,783529255867.74,0.00079499148956625,783528462975.28,7267870930419.3,2.6905511497333e-05,7267870930615.6,0.002958614838718,7267675389895.6,831.95612059968,44.238066954823,44238066.954835
0.00499,1.5261633671714e-08,2.4058468022029e-07,0.00047472209365999,1.526163e-08,0,555772434095.89,1.8522745010797e-05,555772434095.89,0.00079499148956625,555762139855.49,8675072912535.1,0.00024467582718965,8675072914658.1,0.002958614838718,8672950851111.5,877.26826107329,44.509205714876,44509206.082449
0.005,9.2315491044772e-11,4.8840502900791e-05,0.00047472209365999,9.232e-11,0,789899023073.1,6.2214868221448e-08,789899023072.98,0.00079499148956625,789898973929.64,5848475984720.4,3.3339184727431e-06,5848475984740.5,0.002958614838718,5848456486443.2,818.29462604637,34.731980837253,34731980.837272
0.00501,4.435144282276e-09,1.2891839138572e-06,0.00047472209365999,4.43515e-09,0,470268478441.67,4.4572877536614e-06,470268478441.67,0.00079499148956625,470266382329.09,5763412454910.7,0.00010151373589093,5763412455496.3,0.002958614838718,5762827448767.1,937.59638461798,33.477980334928,33477980.334915
0.00502,2.4933657248703e-11,0.00014670071009624,0.00047472209365999,2.493e-11,0,357359894952.5,1.5274423882301e-08,357359894952.44,0.00079499148956625,357359889494.04,6893894185856.9,2.1469142080102e-06,6893894185872.3,0.002958614838718,6893879385289.2,844.48997388106,3.783549690438,3783549.6908187
0.00503,8.1366819598569e-08,1.2240701022159e-06,0.00047472209365999,8.136672e-08,0,859294109959.7,0.00013120723876572,859294109959.7,0.00079499148956625,859181379143.35,9468407860652.2,0.00086536598179663,9468407868839.7,0.002958614838718,9460221306952.9,921.83684736447,22.05747906649,22057479.066533
0.00504,4.5149143075463e-10,3.1689619541883e-06,0.00047472209365999,4.5149e-10,0,826139594942.98,6.3310781864487e-07,826139594942.94,0.00079499148956625,826139071907.87,8433064514384.8,1.888433426724e-05,8433064514544.9,0.002958614838718,8432905264582.9,800.69257568841,29.825793215854,29825793.215861
0.00505,1.5716881712569e-09,1.1635520046166e-06,0.00047472209365999,1.57169e-09,0,804224746020.94,2.1987358535059e-06,804224746020.93,0.00079499148956625,804222977747.05,6211381840364.3,4.7948702571779e-05,6211381840662.8,0.002958614838718,6211084026943.7,887.48076849329,33.844408686455,33844408.686478
0.00506,1.7952120068229e-10,6.6882926206746e-06,0.00047472209365999,1.7952e-10,0,327708158943.64,8.1128858410369e-08,327708158943.59,0.00079499148956625,327708132357.05,5495615936259.9,8.632083131999e-06,5495615936307.9,0.002958614838718,5495568498055.8,882.36213037968,23.838330393741,23838330.393749
0.00507,3.5356808378333e-08,8.0262775360942e-07,0.00047472209365999,3.535678e-08,0,814643757360.93,5.2312129366372e-05,814643757360.93,0.00079499148956625,814601143840.51,8731311921528.7,0.00044591148815241,8731311925421.2,0.002958614838718,8727420264570.8,885.03230721494,48.719972435015,48719972.435216
0.00508,1.8538625959026e-09,1.4002689680341e-06,0.00047472209365999,1.85386e-09,0,766225586911.7,2.8035186063069e-06,766225586911.69,0.00079499148956625,766223438790.04,9151652440187.7,5.8687833190913e-05,9151652440725.7,0.002958614838718,9151115381054.7,865.78211291518,6.3935712651606,6393571.2667311
0.00509,1.9513090203447e-10,4.6227359866697e-06,0.00047472209365999,1.9513e-10,0,508547159732.09,1.7404765325647e-07,508547159732.04,0.00079499148956625,508547071220.67,5103872288075.5,7.8305578809984e-06,5103872288116,0.002958614838718,5103832322221.1,871.11387481125,35.955027781914,35955027.782282
0.0051,6.98296548697e-09,7.8576563171475e-07,0.00047472209365999,6.98296e-09,0,954822332076.83,1.0965523032529e-05,954822332076.83,0.00079499148956625,954811862065.37,8786226334572.5,0.0001368588423292,8786226335775.7,0.002958614838718,8785024026354.4,833.58922801379,49.847671739897,49847671.739928
0.00511,4.423981603092e-10,4.1584330928506e-06,0.00047472209365999,4.424e-10,0,608587754171.86,6.1316150885767e-07,608587754171.83,0.00079499148956625,608587381009.5,8453723798402.7,2.1841323927701e-05,8453723798588.2,0.002958614838718,8453539161915.5,875.16561374045,2.7968174777728,2796817.480206
0.00512,2.5268053774695e-10,2.1281737893069e-06,0.00047472209365999,2.5268e-10,0,777358230597.25,3.6948137462395e-07,777358230597.19,0.00079499148956625,777357943377.97,6703528804183.8,1.3263760319781e-05,6703528804273.4,0.002958614838718,6703439891363.8,858.45085580058,14.739599795753,14739599.79578
0.00513,6.0019464301814e-11,8.9253279870366e-06,0.00047472209365999,6.002e-11,0,319697023120.87,1.4583121745925e-08,319697023120.81,0.00079499148956625,319697018458.69,6979970428305.5,3.1398652564363e-06,6979970428328.1,0.002958614838718,6979948512207.7,822.69171119713,16.685665053848,16685665.053837
0.00514,7.917655011554e-09,6.3295977586786e-07,0.00047472209365999,7.91765e-09,0,797918269076.57,1.2417742445859e-05,797918269076.56,0.00079499148956625,797908360856.05,8020487466734.3,0.00016469244595158,8020487468055.8,0.002958614838718,8019166770544.3,901.04284558498,19.6510664811,19651066.481107
0.00515,1.0835423284513e-09,2.1489296834066e-06,0.00047472209365999,1.08354e-09,0,648975049301.38,1.4120013764717e-06,648975049301.36,0.00079499148956625,648974132949.01,8374922866325,3.6828449660066e-05,8374922866634.2,0.002958614838718,8374614442258.6,830.50550993322,31.003812220022,31003812.220035
0.00516,4.0996254416307e-10,6.2058812321731e-06,0.00047472209365999,4.0996e-10,0,616308377620.39,4.908198120917e-07,616308377620.35,0.00079499148956625,616308075124.18,7183520087837.4,1.7273942008698e-05,7183520087962.2,0.002958614838718,7183396002271.5,840.94901551077,29.857762103693,29857762.103684
0.00517,2.099243518424e-08,2.4695760136299e-07,0.00047472209365999,2.099243e-08,0,949489073568.7,3.495469153572e-05,949489073568.7,0.00079499148956625,949455885631.09,7424025240595.6,0.00032631664702488,7424025243018.1,0.002958614838718,7421603447843,931.71595877092,22.658329088229,22658329.088216
0.00518,5.8716058181666e-08,3.0965416161897e-07,0.00047472209365999,5.871604e-08,0,517759456602.08,7.1277665900765e-05,517759456602.08,0.00079499148956625,517722554546.8,8897534792534.7,0.00067642378350439,8897534798550.1,0.002958614838718,8891520356693.9,928.5616171043,28.640512376039,28640512.376059
0.00519,3.7758063200834e-08,4.4491578798843e-07,0.00047472209365999,3.775808e-08,0,904104860400.46,5.8599123182975e-05,904104860400.46,0.00079499148956625,904051883752.76,6450405582743.3,0.00045854143868199,6450405585700.4,0.002958614838718,6447449160129.6,941.17746259627,47.723365665655,47723365.665713
0.0052,3.948522924357e-11,0.00012080922842127,0.00047472209365999,3.949e-11,0,706442912958.52,2.2841670241071e-08,706442912958.39,0.00079499148956625,706442896822.18,6311449943497.3,1.7811340297892e-06,6311449943509.2,0.002958614838718,6311438701979.1,812.12878540791,16.377624577741,16377624.578228
0.00521,1.008632835828e-09,2.8115641558926e-06,0.00047472209365999,1.00863e-09,0,682783186150.3,1.3501143231177e-06,682783186150.29,0.00079499148956625,682782264316.19,7109027442999.7,3.6160650007412e-05,7109027443257.5,0.002958614838718,7108770385241.8,867.60140686809,26.359681352508,26359681.352523
0.00522,1.2437350597859e-09,3.9720633699392e-06,0.00047472209365999,1.24374e-09,0,331435047224.01,6.4687675052886e-07,331435047224,0.00079499148956625,331434832826.53,6423971192402,4.3942475315614e-05,6423971192684.9,0.002958614838718,6423688919610.2,934.684208341,8.6861415809755,8686141.5810263
0.00523,3.3165860642743e-09,1.8284721899872e-06,0.00047472209365999,3.31658e-09,0,342095324240.91,1.906906938572e-06,342095324240.91,0.00079499148956625,342094671898.21,9669111884547.2,8.3255772248839e-05,9669111885353.2,0.002958614838718,9668306942186.4,822.37056327505,37.90378560735,37903785.607695
0.00524,2.8181601954506e-09,6.9353959999418e-08,0.00047472209365999,2.81816e-09,0,394818172686.55,2.08652465023e-06,394818172686.54,0.00079499148956625,394817348890.42,7013092037256.1,7.4011305604998e-05,7013092037775.8,0.002958614838718,7012573027570.7,894.48591019651,34.433032786101,34433032.786079
0.00525,1.8150437818168e-11,2.4122213086699e-05,0.00047472209365999,1.815e-11,0,352226598867.09,4.2001175549664e-09,352226598867.02,0.00079499148956625,352226600346.48,5248503783188,1.1582807446258e-07,5248503783189.2,0.002958614838718,5248503175264,802.62619588015,14.161021191685,14161021.191768
0.00526,3.82633454723e-10,9.0288869208633e-06,0.00047472209365999,3.8263e-10,0,435491109977.72,3.7315476778501e-07,435491109977.69,0.00079499148956625,435490947472.2,5536747555828.8,1.8627061078811e-05,5536747555932.5,0.002958614838718,5536644424414.9,929.23374596384,7.9222272485233,7922227.2484983
0.00527,2.463348015507e-09,8.0560739513351e-07,0.00047472209365999,2.46335e-09,0,447503002418.13,2.411992767691e-06,447503002418.12,0.00079499148956625,447501923046.72,8821229918356.8,7.3233184787963e-05,8821229919003.7,0.002958614838718,8820583958901.8,904.71556950621,4.1593124600451,4159312.4600311
0.00528,3.6275188291326e-09,3.2277352220663e-07,0.00047472209365999,3.62752e-09,0,581919471161.83,4.2467197480198e-06,581919471161.82,0.00079499148956625,581916999923.41,8125470230633.2,8.5977600742404e-05,8125470231332.6,0.002958614838718,8124771682257.4,852.24995721284,46.121485310681,46121485.31221
0.00529,5.8353557426627e-08,1.8409644586739e-06,0.00047472209365999,5.835345e-08,0,997149224776.41,9.7196816882356e-05,997149224776.41,0.00079499148956625,997052314465.18,9844310370844.4,0.00068487963802809,9844310377582.9,0.002958614838718,9837572817534,892.76339264025,25.737744327258,25737744.32735
0.0053,2.0609690369652e-08,9.8835410582166e-07,0.00047472209365999,2.060967e-08,0,633311292744.97,2.946356802422e-05,633311292744.97,0.00079499148956625,633292633684.38,9501590838799.1,0.00033168906817632,9501590841950.6,0.002958614838718,9498440309983.6,907.80314041358,12.429797992324,12429797.992333
0.00531,1.0373874057011e-08,1.3550415046977e-06,0.00047472209365999,1.037386e-08,0,875971577571.35,1.8071352379621e-05,875971577571.35,0.00079499148956625,875955747866.36,9050057371091.2,0.00020419376795942,9050057372939.7,0.002958614838718,9048209783042.3,933.41770012172,3.071898745823,3071898.7458042
0.00532,1.795324086404e-10,1.3416367157322e-05,0.00047472209365999,1.7953e-10,0,462856597565.49,1.931790538479e-07,462856597565.44,0.00079499148956625,462856508151.3,5331873334613.9,1.070532838532e-05,5331873334671.5,0.002958614838718,5331816255770,919.59202104916,6.8471526434242,6847152.643438
0.00533,1.7373565715959e-09,1.9733412303767e-06,0.00047472209365999,1.73736e-09,0,385242480085.23,1.3539242297782e-06,385242480085.22,0.00079499148956625,385241958496.81,8544807517814.8,5.6696531502911e-05,8544807518300.1,0.002958614838718,8544323084331.9,874.66594398027,12.980264529826,12980264.529838
0.00534,3.2658341008731e-10,1.0441813061512e-05,0.00047472209365999,3.2658e-10,0,599761887344.26,3.9656838917534e-07,599761887344.22,0.00079499148956625,599761649497.75,6012081041235.7,1.538592334892e-05,6012081041328.8,0.002958614838718,6011988541240.8,878.85631726498,20.67555447172,20675554.471707
0.00535,9.5683054368318e-10,5.6821293315808e-07,0.00047472209365999,9.5683e-10,0,887263395220.93,1.4477954226225e-06,887263395220.91,0.00079499148956625,887262110646.91,5991527360647.8,3.6335473288526e-05,5991527360866.1,0.002958614838718,5991309663575.6,913.19245295323,11.072738444733,11072738.444723
0.0053599999999999,1.7531966242737e-08,3.5607751660481e-07,0.00047472209365999,1.753196e-08,0,736497860727.57,2.4749128297879e-05,736497860727.57,0.00079499148956625,736479633498.64,8061001539417.7,0.00027328521038839,8061001541620.9,0.002958614838718,8058799188785.9,898.01436305904,38.137736059781,38137736.060068
0.0053699999999999,1.1977615864267e-10,3.2070106291709e-05,0.00047472209365999,1.1978e-10,0,456828949255,1.144379492624e-07,456828949254.94,0.00079499148956625,456828896976.44,5170820978138.8,7.3976789096883e-06,5170820978177.6,0.002958614838718,5170782726348.5,902.36126699505,10.560758063406,10560758.063708
0.0053799999999999,1.4280514234532e-09,9.9678105119106e-07,0.00047472209365999,1.42805e-09,0,480730946395.29,1.413701387113e-06,480730946395.28,0.00079499148956625,480730266786.24,9042752603415.9,4.4292197517874e-05,9042752603817.3,0.002958614838718,9042352097770.8,814.08805042354,38.973266658468,38973266.658796
0.0053899999999999,1.0132445071971e-09,5.4209749742588e-06,0.00047472209365999,1.01325e-09,0,963203694477.17,1.6025367670775e-06,963203694477.15,0.00079499148956625,963202150910.31,6065846272592.5,3.7547402836571e-05,6065846272820.8,0.002958614838718,6065618524370.3,897.4826271801,17.448024642032,17448024.642141
0.0053999999999999,5.5639036567737e-09,2.4545369612288e-06,0.00047472209365999,5.56389e-09,0,891728259186.94,8.8263900249807e-06,891728259186.94,0.00079499148956625,891720388515,9730189323691.3,0.00012661874364684,9730189324924.2,0.002958614838718,9728957455321.4,826.87936573774,28.267965212026,28267965.212034
0.0054099999999999,3.626956223417e-11,1.2069639656802e-05,0.00047472209365999,3.627e-11,0,694099071001.06,4.0955589167908e-08,694099071000.94,0.00079499148956625,694099042573.82,5078658468358.5,2.4202473833123e-06,5078658468371.3,0.002958614838718,5078646176778.4,872.07719956768,7.5069575237605,7506957.5238412
0.0054199999999999,1.0293660565899e-10,3.2973975209177e-05,0.00047472209365999,1.0294e-10,0,723294154160.15,8.4930260093804e-08,723294154160.05,0.00079499148956625,723294092730.6,6667305191218,4.2557128625253e-06,6667305191247.1,0.002958614838718,6667276817202.3,808.05019055553,32.144977866558,32144977.866747
0.0054299999999999,1.4885098668557e-08,7.6126025410581e-07,0.00047472209365999,1.488511e-08,0,529205519176.22,1.7527107488367e-05,529205519176.22,0.00079499148956625,529196243896.77,7290604107732.4,0.0002565849070594,7290604109603.3,0.002958614838718,7288733928614.8,940.89282541773,22.248702155574,22248702.155562
0.0054399999999999,1.8439468797783e-09,1.6921400913603e-06,0.00047472209365999,1.84395e-09,0,545096198603.95,2.0964664499497e-06,545096198603.94,0.00079499148956625,545095055830.46,5643213353193.5,5.5203633852038e-05,5643213353505.5,0.002958614838718,5642901844506.2,923.92878051501,27.545943874014,27545943.873998
0.0054499999999999,2.2361198232829e-07,5.9177671649193e-07,0.00047472209365999,2.2361185e-07,0,541320242326.96,0.0002609665915006,541320242326.96,0.00079499148956625,541179012684.63,9315658665350.8,0.0017129553603644,9315658681281.8,0.002958614838718,9299728645317.9,936.22194111859,43.311572972961,43311572.972982
0.0054599999999999,4.6745068951011e-09,6.6421911557137e-07,0.00047472209365999,4.67451e-09,0,306995665317.17,2.0053170859568e-06,306995665317.16,0.00079499148956625,306995049694.75,7240223686671.3,0.00011469540215933,7240223687502.4,0.002958614838718,7239393361538.3,946.89921582942,8.9098671423213,8909867.1430444
0.0054699999999999,5.913155103012e-11,2.6230849309309e-05,0.00047472209365999,5.913e-11,0,834478697847.41,5.1639986750122e-08,834478697847.28,0.00079499148956625,834478654754.94,5669059830234.4,3.0242542925781e-06,5669059830252.1,0.002958614838718,5669042685607.7,837.58095608225,17.103208757864,17103208.757873
0.0054799999999999,2.061426487132e-07,8.6694024756504e-07,0.00047472209365999,2.0614247e-07,0,567399005136.33,0.00025456696612397,567399005136.33,0.00079499148956625,567254600853.57,9617049378104.7,0.0016094832196309,9617049393559.3,0.002958614838718,9601595770829.9,925.75668049537,43.225170433912,43225170.434137
0.0054899999999999,2.061426487132e-07,8.6694024756504e-07,0.00047472209365999,2.0614247e-07,0,567399005136.33,0.00025456696612397,567399005136.33,0.00079499148956625,567254600853.57,9617049378104.7,0.0016094832196309,9617049393559.3,0.002958614838718,9601595770829.9,925.75668049537,43.225170433912,43225170.434137
0.0054999999999999,5.5627065281641e-11,5.2754239787316e-05,0.00047472209365999,5.563e-11,0,714159191970.68,5.053300049888e-08,714159191970.57,0.00079499148956625,714159155882.08,5271547543804,2.8863138890911e-06,5271547543819.8,0.002958614838718,5271532328507,854.46875560798,15.42955739739,15429557.397674
0.0055099999999999,2.0993401893119e-10,1.9144148958716e-05,0.00047472209365999,2.0993e-10,0,915144553072.57,3.3203010167008e-07,915144553072.51,0.00079499148956625,915144249217.14,5743253396243.6,1.1586857748117e-05,5743253396310.7,0.002958614838718,5743186850754.6,880.13127478207,11.732609541947,11732609.541932
0.0055199999999999,3.4799011205386e-10,3.2200309675347e-07,0.00047472209365999,3.4799e-10,0,419755564766.29,3.0484700136874e-07,419755564766.26,0.00079499148956625,419755436805.11,5880397126987.7,1.7377488199093e-05,5880397127090.5,0.002958614838718,5880294942231.7,911.46648292635,9.9431352742042,9943135.2742215
0.0055299999999999,7.1559110286927e-09,1.4375428784401e-07,0.00047472209365999,7.15591e-09,0,573956026331.62,8.8235823052156e-06,573956026331.61,0.00079499148956625,573950962028.06,8944860445196.2,0.00014243001048784,8944860446470.9,0.002958614838718,8943586610061.5,853.08465447075,41.423079272277,41423079.272771
0.0055399999999999,1.9244217399417e-08,1.351358193673e-07,0.00047472209365999,1.924422e-08,0,792438753097.18,2.7096559306021e-05,792438753097.18,0.00079499148956625,792417281315.32,7522415444204.3,0.00028713396363744,7522415446364.4,0.002958614838718,7520256123256.1,909.32178008456,40.071259892161,40071259.89215
0.0055499999999999,1.049489872961e-10,9.6493939772645e-06,0.00047472209365999,1.0495e-10,0,602513815251.68,5.1451866414575e-08,602513815251.59,0.00079499148956625,602513784251.22,5550029600657.5,3.2566733358728e-06,5550029600676.2,0.002958614838718,5550011526083,825.0874335306,42.179324821608,42179324.821592
0.0055599999999999,2.5524950241986e-09,1.9683519337471e-06,0.00047472209365999,2.55249e-09,0,490009867225.29,2.736995189415e-06,490009867225.28,0.00079499148956625,490008526074.31,9387819596788.6,7.0054772993924e-05,9387819597447.2,0.002958614838718,9387161981286.9,827.38343782137,31.373869050064,31373869.050075
0.0055699999999999,4.5004816827226e-09,3.7389846617972e-07,0.00047472209365999,4.50048e-09,0,990876109072.78,8.1286406602101e-06,990876109072.78,0.00079499148956625,990868054662.43,6198174513268.9,0.00011254666412095,6198174513967,0.002958614838718,6197477007905.7,942.93478888113,11.501092191918,11501092.192007
0.0055799999999999,2.6544208138697e-10,7.8412709722861e-06,0.00047472209365999,2.6544e-10,0,369733740722.02,1.9402820882643e-07,369733740721.98,0.00079499148956625,369733668983.26,7462000050425.1,1.3991023923305e-05,7462000050530.2,0.002958614838718,7461895650864.5,856.74343407119,13.415700942403,13415700.942394
0.0055899999999999,8.8986973357443e-08,8.2436227137861e-07,0.00047472209365999,8.89869e-08,0,925325588935.7,0.00013927814365956,925325588935.7,0.00079499148956625,925196729252.73,8571676145672.1,0.00087975886358645,8571676153207.3,0.002958614838718,8564141766044.4,926.05747529313,35.438472683921,35438472.684023
0.0055999999999999,3.3623285527056e-09,4.3044388867602e-07,0.00047472209365999,3.36233e-09,0,743690178322.04,4.399975011396e-06,743690178322.03,0.00079499148956625,743686906118.23,7836502072705,8.0692845612356e-05,7836502073338.1,0.002958614838718,7835869774075.1,848.67894450966,49.515150194757,49515150.194766
0.0056099999999999,1.7114171108203e-08,6.4753530387192e-08,0.00047472209365999,1.711417e-08,0,670281866908.23,2.237098801853e-05,670281866908.22,0.00079499148956625,670266872376.06,7655483670732.1,0.00026451865542657,7655483672757.4,0.002958614838718,7653459187998.4,906.2930894367,40.771933124267,40771933.124292
0.0056199999999999,5.0437417856927e-10,8.2847300029977e-06,0.00047472209365999,5.0437e-10,0,382610215727.1,3.1741566257629e-07,382610215727.07,0.00079499148956625,382610094280.66,7777401690316.8,1.84535142504e-05,7777401690461,0.002958614838718,7777258172572.2,820.11480933636,44.865586817791,44865586.817796
0.0056299999999999,3.1955481350802e-10,1.6230103814648e-05,0.00047472209365999,3.1956e-10,0,537293278210.79,3.5100271656012e-07,537293278210.75,0.00079499148956625,537293089619.46,6537053563038.8,1.4718647942798e-05,6537053563135.7,0.002958614838718,6536957347865,861.39845559802,24.33937627509,24339376.275197
0.0056399999999999,7.5499775678141e-11,2.9711504563331e-06,0.00047472209365999,7.55e-11,0,984221279845.29,6.0613857783897e-08,984221279845.14,0.00079499148956625,984221220187.85,6113226919483.3,3.000263919213e-06,6113226919502.3,0.002958614838718,6113208578244.2,806.14680944262,30.336783105011,30336783.105006
0.0056499999999999,8.5112315875146e-07,1.044211259447e-06,0.00047472209365999,8.5112227e-07,0,701402346864.07,0.0014516569903794,701402346864.07,0.0014516569903794,700385627172.43,9963320348414.3,0.0045616378107463,9963320393658.1,0.0045616378107463,9918077670303.5,948.29918891262,48.477453195633,48477453.195673
0.0056599999999999,2.2534159217433e-10,7.065653359334e-06,0.00047472209365999,2.2534e-10,0,921376862231.26,3.5066745583647e-07,921376862231.19,0.0014516569903794,921376539134.49,6769843846687.1,1.2138798064578e-05,6769843846769.9,0.0045616378107463,6769761669917.2,850.30355957358,13.969608484186,13969608.484929
0.0056699999999999,4.0932487487076e-09,3.0569655056141e-07,0.00047472209365999,4.09325e-09,0,730326847590.86,5.6220964306472e-06,730326847590.85,0.0014516569903794,730322741645.98,8647690169433.5,9.3631910986754e-05,8647690170244,0.0045616378107463,8646880545484,836.74872571938,45.282048733083,45282048.733555
0.0056799999999999,9.1850680112666e-09,1.9609328818386e-06,0.00047472209365999,9.18505e-09,0,868121959071.51,1.3999042174748e-05,868121959071.51,0.0014516569903794,868109806365.72,9430505153395.7,0.00017144395069074,9430505155013.2,0.0045616378107463,9428888627478.8,828.82138677063,47.344416125972,47344416.12599
0.0056899999999999,6.3102404177391e-11,3.8101068001639e-05,0.00047472209365999,6.31e-11,0,371030064452.8,1.5754949276511e-08,371030064452.74,0.0014516569903794,371030058607.24,6383739786145.3,2.2499944215249e-06,6383739786160.3,0.0045616378107463,6383725422798.7,816.02728024146,27.239638821472,27239638.82154
0.0056999999999999,4.7325725715473e-10,5.7956414466587e-06,0.00047472209365999,4.7326e-10,0,515094482711.86,5.0129658242129e-07,515094482711.83,0.0014516569903794,515094224496.89,6800107548137.1,1.9639605940286e-05,6800107548271.3,0.0045616378107463,6799973999327.3,858.93759770201,29.1291192565,29129119.256489
0.0057099999999999,9.8689930182714e-09,3.0583386968688e-07,0.00047472209365999,9.86899e-09,0,860779193319.18,1.591761750304e-05,860779193319.18,0.0014516569903794,860765491983.32,8157455288392.1,0.0001904862680894,8157455289946.5,0.0045616378107463,8155901701114.2,895.31829705929,23.583968138596,23583968.138607
0.0057199999999999,9.6312035530511e-11,2.1135193755289e-05,0.00047472209365999,9.631e-11,0,636759621944.7,1.3542967670765e-07,636759621944.62,0.0014516569903794,636759535708.56,5918229653606.1,6.5867756682887e-06,5918229653645.7,0.0045616378107463,5918190671811.8,886.051654176,5.5559814624851,5555981.4625489
0.0057299999999999,9.9529821189945e-10,1.7965443045404e-06,0.00047472209365999,9.953e-10,0,839467301775.59,1.5150454387877e-06,839467301775.57,0.0014516569903794,839466029946.41,9107216675324.6,3.6659913210752e-05,9107216675659.4,0.0045616378107463,9106882817790.9,811.40590829219,21.14279587845,21142795.878486
0.0057399999999999,1.0811749543431e-08,9.6714775467298e-07,0.00047472209365999,1.081176e-08,0,432825235397.4,1.0168910565232e-05,432825235397.4,0.0014516569903794,432820834081.04,7366800249100.4,0.00020697697858674,7366800250625.6,0.0045616378107463,7365275806567.5,938.95870510827,19.033170252547,19033170.252566
0.0057499999999999,5.3956059760274e-10,1.1075742017027e-06,0.00047472209365999,5.3956e-10,0,655305565307.94,7.9332097775971e-07,655305565307.91,0.0014516569903794,655305045440.7,8951888748500.6,2.5812444527962e-05,8951888748732.5,0.0045616378107463,8951657684333.2,869.8036525602,2.2517911049859,2251791.1050144
0.0057599999999999,2.210276575275e-11,0.00012514718323669,0.00047472209365999,2.21e-11,0,414054447973.15,1.4798339143239e-08,414054447973.07,0.0014516569903794,414054441845.83,6291732169502.8,1.5272909176612e-06,6291732169513,0.0045616378107463,6291722560212,839.46489234447,6.0790983515568,6079098.3515603
0.0057699999999999,3.174407986634e-07,8.4634247523397e-07,0.00047472209365999,3.1744053e-07,0,622193737740.98,0.00042369732401087,622193737740.98,0.0014516569903794,621930227567.84,9556655331918.7,0.0022280368014194,9556655353164.9,0.0045616378107463,9535410087327.5,945.27149307367,37.4295797541,37429579.754601
0.0057799999999999,9.3643125453961e-11,3.337733832335e-05,0.00047472209365999,9.364e-11,0,852432603889.27,5.3426384387156e-08,852432603889.13,0.0014516569903794,852432558346.88,5402988776045.5,2.7968622736058e-06,5402988776061.2,0.0045616378107463,5402973664672.3,817.48919475722,41.075897243929,41075897.243924
0.0057899999999999,8.2116757993802e-09,7.0623639590904e-07,0.00047472209365999,8.21167e-09,0,897827293822.1,1.2610967743087e-05,897827293822.09,0.0014516569903794,897815971493.84,7617141418166,0.00016082372466074,7617141419391.6,0.0045616378107463,7615916598092,890.44848490602,33.11590645128,33115906.451284
0.0057999999999999,9.5842021621358e-08,2.9609803306781e-07,0.00047472209365999,9.584205e-08,0,750755572882.89,0.00012901774277182,750755572882.89,0.0014516569903794,750658724588.66,7303948119840.4,0.00090597790497405,7303948126452.3,0.0045616378107463,7297336893849.4,949.7618389589,47.063844727953,47063844.727984
0.0058099999999999,8.7127374260163e-09,8.5231797033455e-07,0.00047472209365999,8.71273e-09,0,938959447959.84,1.4744216774172e-05,938959447959.84,0.0014516569903794,938945603942.32,7979990399995.3,0.00017598419993021,7979990401400.2,0.0045616378107463,7978586294869.7,899.46189152113,19.896853109116,19896853.109393
0.0058199999999999,2.0681757462458e-09,2.056762092599e-06,0.00047472209365999,2.06818e-09,0,593847524901.88,2.5205114000495e-06,593847524901.88,0.0014516569903794,593846028106.2,8272033361935.5,5.7810527533667e-05,8272033362414.5,0.0045616378107463,8271555178967.1,842.48772967027,38.645132641429,38645132.641474
0.0058299999999999,2.7474037546181e-09,1.3666077289272e-06,0.00047472209365999,2.7474e-09,0,823761764925.35,4.0674832153568e-06,823761764925.34,0.0014516569903794,823758414301.83,7099341519819.7,7.7357432530796e-05,7099341520369.5,0.0045616378107463,7098792375467.4,917.384561716,9.3715088655738,9371508.8659375
0.0058399999999999,4.1101119594346e-09,4.7673531514113e-07,0.00047472209365999,4.11011e-09,0,496080937068.41,4.4328115871119e-06,496080937068.41,0.0014516569903794,496078738044.84,8235855549608.6,9.6816263414305e-05,8235855550406.8,0.0045616378107463,8235058262038.7,866.47181363599,36.706794036812,36706794.03706
0.0058499999999999,6.9423145442128e-11,4.5310315873617e-05,0.00047472209365999,6.942e-11,0,559800843391.6,8.2231378557161e-08,559800843391.52,0.0014516569903794,559800797358.4,7890198642696.8,5.1616882145706e-06,7890198642738.3,0.0045616378107463,7890157916161.7,832.70298155018,4.866951138037,4866951.1385393
0.0058599999999999,1.1847842940187e-09,3.6243173064715e-06,0.00047472209365999,1.18478e-09,0,406723588564.12,1.0328992267497e-06,406723588564.11,0.0014516569903794,406723168460.07,9948252862393.6,4.0724566244509e-05,9948252862799.7,0.0045616378107463,9947847740609.2,804.07334890715,18.161880335974,18161880.335993
0.0058699999999999,4.8261017934497e-10,3.7161470078039e-07,0.00047472209365999,4.8261e-10,0,335111645943.22,2.4099137340573e-07,335111645943.19,0.0014516569903794,335111565184.23,5377075001551.5,1.8007919136477e-05,5377075001648.8,0.0045616378107463,5376978173363.3,889.93641928621,39.869750858748,39869750.858854
0.0058799999999999,1.0439754442185e-08,1.3833854933969e-06,0.00047472209365999,1.043974e-08,0,676410902419.84,1.4411388134755e-05,676410902419.84,0.0014516569903794,676401154540.27,9775371248580,0.0001962856389386,9775371250499.4,0.0045616378107463,9773452860140.8,846.57639491927,32.284387461201,32284387.461192
0.0058899999999999,4.6760050170253e-10,1.0729309848699e-06,0.00047472209365999,4.676e-10,0,760617466716.51,6.5540915394953e-07,760617466716.47,0.0014516569903794,760616968201.19,7594998073686.3,1.992341468253e-05,7594998073838.4,0.0045616378107463,7594846758404.9,834.84804000715,24.971293703433,24971293.703435
0.0058999999999999,5.4548787405702e-10,3.8973088056094e-06,0.00047472209365999,5.4549e-10,0,932316332316.42,8.3985060257534e-07,932316332316.39,0.0014516569903794,932315549310.65,8307175230291.9,2.2091884645007e-05,8307175230476.2,0.0045616378107463,8306991713189.2,809.4777713217,26.859152161826,26859152.161842
0.0059099999999999,5.7742579256503e-08,1.3725852314639e-06,0.00047472209365999,5.77425e-08,0,974063411313.55,0.00010001174581061,974063411313.55,0.0014516569903794,973966003273.21,9220560707672,0.00067186216442231,9220560713863.7,0.0045616378107463,9214369921153,910.10917233743,25.409991227912,25409991.227927
0.0059199999999999,9.2837597756376e-09,2.4167189960876e-08,0.00047472209365999,9.28376e-09,0,310800176880.53,4.7038270118319e-06,310800176880.53,0.0014516569903794,310798714937.14,9870840411571.5,0.0001858069880215,9870840413406.2,0.0045616378107463,9869006681165.3,914.25013788663,5.0664875306278,5066487.5307375
0.0059299999999999,6.1497176888553e-09,2.0019000369436e-06,0.00047472209365999,6.14973e-09,0,400172074004.06,4.5210630664422e-06,400172074004.05,0.0014516569903794,400170264809.05,6647266712026.7,0.00012713052613302,6647266712872.3,0.0045616378107463,6646421748932.8,920.45140376025,36.20418905963,36204189.060086
0.0059399999999999,4.7122373038398e-10,7.9164381340339e-06,0.00047472209365999,4.7122e-10,0,482307928050.28,4.8342667513881e-07,482307928050.25,0.0014516569903794,482307694889.87,9255106936927.9,2.162396018601e-05,9255106937128.9,0.0045616378107463,9254906809191.5,805.43783433849,18.343664771475,18343664.77152
0.0059499999999999,3.0342725572332e-11,8.9834289126911e-05,0.00047472209365999,3.034e-11,0,445019641613.75,9.1809610233657e-09,445019641613.67,0.0014516569903794,445019637528.05,5011394631046.7,9.7328704637543e-07,5011394631052,0.0045616378107463,5011389753525.9,846.12283047037,15.520799387725,15520799.387734
0.0059599999999999,3.6216102324401e-10,2.8253921148972e-06,0.00047472209365999,3.6216e-10,0,658326939966.73,4.7102389941429e-07,658326939966.69,0.0014516569903794,658326629879.15,6586245850874,1.6800162104017e-05,6586245850985.3,0.0045616378107463,6586135202735,863.44975286888,21.408628627777,21408628.62779
0.0059699999999999,1.6446533269677e-09,2.0229031862004e-06,0.00047472209365999,1.64465e-09,0,691766823684.22,2.0496566181871e-06,691766823684.21,0.0014516569903794,691765405802.68,6929040269546,4.8200623196042e-05,6929040269880.7,0.0045616378107463,6928706301584.3,862.72384751179,43.775402655135,43775402.655254
0.0059799999999999,4.0157962078551e-08,5.1759386709231e-08,0.00047472209365999,4.015796e-08,0,773034656461.95,5.6125866875886e-05,773034656461.95,0.0014516569903794,772991271656.74,7907367511047.9,0.00048535476630613,7907367514884.7,0.0045616378107463,7903531494366.5,916.63080487358,42.646586607708,42646586.607678
0.0059899999999999,1.4097570911653e-08,7.740100609122e-07,0.00047472209365999,1.409756e-08,0,969587783299.5,2.1843211841062e-05,969587783299.5,0.0014516569903794,969566604850.76,7730281937357,0.00022935908366452,7730281939130.3,0.0045616378107463,7728509333538.1,883.32634250683,46.40721881944,46407218.819472
0.0059999999999999,1.3699299303308e-08,5.0856012648916e-08,0.00047472209365999,1.36993e-08,0,686084547223.56,1.9371293149575e-05,686084547223.56,0.0014516569903794,686071257136.11,8005512914391.5,0.00023636883224589,8005512916284.1,0.0045616378107463,8003621107816.5,907.25840557245,28.0139213294,28013921.329457
0.0060099999999999,2.2684775810494e-10,9.8827201185508e-06,0.00047472209365999,2.2685e-10,0,965747158885.81,3.6701722000825e-07,965747158885.74,0.0014516569903794,965746804440.11,7890540587125.7,1.1996897425526e-05,7890540587221.1,0.0045616378107463,7890445926255.3,815.75392405124,14.664182281058,14664182.281075
0.0060199999999999,1.9255509168287e-11,0.00023316883245373,0.00047472209365999,1.926e-11,0,435125432523.12,8.1822122962114e-09,435125432523.03,0.0014516569903794,435125428962.83,5808334830785.4,7.6098813880736e-07,5808334830790.5,0.0045616378107463,5808330410714.9,824.45771897515,9.9503935580815,9950393.5580916
0.0060299999999999,2.6312603348909e-11,9.8949027343455e-05,0.00047472209365999,2.631e-11,0,347303720346.99,1.1080660970535e-08,347303720346.93,0.0014516569903794,347303716498.64,6731999489673.4,1.5552271322172e-06,6731999489684.5,0.0045616378107463,6731989019901.4,823.00875883304,8.7975825338939,8797582.5338849
0.0060399999999999,4.6084157738198e-08,3.8490895829339e-07,0.00047472209365999,4.608414e-08,0,528268649259.32,5.7745727649586e-05,528268649259.32,0.0014516569903794,528238145763.22,9038588301839.8,0.00059596508476802,9038588307224.2,0.0045616378107463,9033204827159.3,947.92721256631,11.665791503458,11665791.50347
0.0060499999999999,3.1681593881923e-10,1.2818574502223e-05,0.00047472209365999,3.1682e-10,0,551447346100.98,3.8953943584078e-07,551447346100.94,0.0014516569903794,551447131290.58,9509539435813.2,1.6212930632355e-05,9509539435968.3,0.0045616378107463,9509385260809.6,819.00487853413,5.0447297306065,5044729.7306125
0.0060599999999999,8.3438321653352e-10,3.8549983516697e-06,0.00047472209365999,8.3438e-10,0,985161219624.73,1.2871350611677e-06,985161219624.7,0.0014516569903794,985159951590.81,8662245088600.8,2.9395689523297e-05,8662245088856.3,0.0045616378107463,8661990463418.5,800.45102013872,33.293214774349,33293214.774645
0.0060699999999999,5.2954533841301e-10,8.8029213249934e-06,0.00047472209365999,5.2955e-10,0,366611446453.82,3.3607160635436e-07,366611446453.8,0.0014516569903794,366611323246.17,6423068356695.5,2.0340972223218e-05,6423068356826.8,0.0045616378107463,6422937707898,867.03931794735,36.599956638928,36599956.638928
0.0060799999999999,7.1839034711829e-10,4.8318919553632e-07,0.00047472209365999,7.1839e-10,0,849234818753.73,1.0686989351704e-06,849234818753.7,0.0014516569903794,849233911178.35,7586804046567.6,2.7566012958194e-05,7586804046777.5,0.0045616378107463,7586594914393.9,840.2276235217,26.830706617722,26830706.617722
0.0060899999999999,4.535177381956e-08,1.362777786758e-07,0.00047472209365999,4.535178e-08,0,328922345118.24,2.5109382838403e-05,328922345118.24,0.0014516569903794,328914086288.53,8520471942027.3,0.00056314833663554,8520471946823.7,0.0045616378107463,8515676353053.7,938.5971815174,27.624175213658,27624175.21366
0.0060999999999999,9.0837175328274e-11,3.1095021200151e-05,0.00047472209365999,9.084e-11,0,995062974207.39,7.1048765455318e-08,995062974207.24,0.0014516569903794,995062903509.4,6033614617253.1,3.2220057670164e-06,6033614617273.2,0.0045616378107463,6033595176974.7,801.56647810223,38.950067674071,38950067.674084
0.0061099999999999,2.7674767957079e-09,1.1578374756713e-06,0.00047472209365999,2.76748e-09,0,748992879783.09,3.7306824317653e-06,748992879783.08,0.0014516569903794,748990085538.94,5363299502299.2,6.9699330011017e-05,5363299502673.6,0.0045616378107463,5362925709970.3,909.30657361931,47.599848336546,47599848.336568
0.0061199999999999,2.7319234023122e-10,8.5663136177309e-06,0.00047472209365999,2.7319e-10,0,701532099995.55,3.8923386679615e-07,701532099995.5,0.0014516569903794,701531826935.6,9085523680764.8,1.4734477695372e-05,9085523680899.5,0.0045616378107463,9085389812291.2,812.62261200998,8.260788744092,8260788.7452652
0.0061299999999999,2.3719019275573e-09,3.4033511879546e-06,0.00047472209365999,2.37191e-09,0,321227218996.26,1.2471965537506e-06,321227218996.25,0.0014516569903794,321226818363.28,5621189428388,6.741569912665e-05,5621189428767.5,0.0045616378107463,5620810497518.6,944.76912139715,24.004249596929,24004249.596961
0.0061399999999999,1.2139556172169e-10,3.6559129374549e-05,0.00047472209365999,1.214e-10,0,919330423111.25,1.8696651480031e-07,919330423111.16,0.0014516569903794,919330251227.28,6271800008051.7,7.4472837366796e-06,6271800008099,0.0045616378107463,6271753300525.3,855.06732511645,10.58115701495,10581157.014958
0.0061499999999999,3.8691057426827e-08,4.5040988300158e-07,0.00047472209365999,3.869104e-08,0,946203509382.54,6.1050559580437e-05,946203509382.54,0.0014516569903794,946145746655.26,7993064683799.9,0.00047982348125575,7993064687634.1,0.0045616378107463,7989231263042.7,914.4097628772,37.411554003279,37411554.003539
0.0061599999999999,8.7737687574857e-10,3.5608874525832e-06,0.00047472209365999,8.7738e-10,0,696817776492.38,1.1705778549695e-06,696817776492.36,0.0014516569903794,696816960813.87,5938222549486.5,3.2935733521636e-05,5938222549682.6,0.0045616378107463,5938026976212.3,899.94289374819,21.871376976148,21871376.976193
0.0061699999999999,2.5590886616631e-08,2.5855427536944e-07,0.00047472209365999,2.559088e-08,0,681251359874.51,3.5333407409565e-05,681251359874.51,0.0014516569903794,681227289793.14,8369172508479,0.00035821071336259,8369172511476.7,0.0045616378107463,8366175654729.7,900.5491987728,39.380248037204,39380248.037246
0.0061799999999999,5.3259741462823e-11,4.8542466607543e-06,0.00047472209365999,5.326e-11,0,463956250606.3,3.550184604399e-08,463956250606.22,0.0014516569903794,463956234134.99,5954840726293,2.9479769393294e-06,5954840726311.2,0.0045616378107463,5954823171611.7,848.02536790445,13.379425262338,13379425.26256
0.0061899999999999,1.6279450987383e-09,3.0106955010221e-06,0.00047472209365999,1.62795e-09,0,878962851120.74,2.4166553490564e-06,878962851120.72,0.0014516569903794,878960726975.59,6990047699060.3,5.0386383052298e-05,6990047699413.2,0.0045616378107463,6989695513584.7,869.87525063507,30.818015879465,30818015.87953
0.0061999999999999,9.9844806986218e-09,6.9970770651883e-08,0.00047472209365999,9.98448e-09,0,316379970029.21,5.0781602732393e-06,316379970029.21,0.0014516569903794,316378363409.17,8741003990244.9,0.00019553931604662,8741003991954.6,0.0045616378107463,8739295114455.4,934.92666249084,6.9266206145781,6926620.6147178
0.0062099999999999,6.569246296644e-10,8.1748977799537e-06,0.00047472209365999,6.5693e-10,0,977413027743.62,1.0244136311089e-06,977413027743.58,0.0014516569903794,977412026469.41,5733021386177.8,2.5248756862418e-05,5733021386323.2,0.0045616378107463,5732876638169.5,877.97271236703,29.706986782507,29706986.782666
0.0062199999999999,8.7587279650304e-10,3.1928288892474e-06,0.00047472209365999,8.7587e-10,0,755970989444.73,1.2798197592253e-06,755970989444.7,0.0014516569903794,755970021939.35,5407208875277.1,3.3857814119224e-05,5407208875460.7,0.0045616378107463,5407025805202.5,919.76656786543,17.363071200992,17363071.200982
0.0062299999999999,5.4336218337014e-09,3.343301845125e-06,0.00047472209365999,5.43364e-09,0,479922505191.23,6.2497982574369e-06,479922505191.23,0.0014516569903794,479919505791.14,5138317163964.4,0.00011464314916392,5138317164553.9,0.0045616378107463,5137728158628.7,949.89874837262,42.71427566309,42714275.66328
0.0062399999999999,6.8844802047718e-09,1.4227964821911e-06,0.00047472209365999,6.88449e-09,0,580605301100.39,8.4785327591128e-06,580605301100.39,0.0014516569903794,580600378461.06,6610714979331.2,0.0001463548837987,6610714980299.2,0.0045616378107463,6609747610487.7,937.93907227354,21.332175337883,21332175.338005
0.0062499999999999,8.8274643272057e-09,4.901982803641e-07,0.00047472209365999,8.82746e-09,0,871885101192.48,1.2827196753072e-05,871885101192.48,0.0014516569903794,871873917494.2,7733124179625.6,0.00016385191523389,7733124180893.3,0.0045616378107463,7731857299998.7,874.17406491747,46.855339565594,46855339.565827
0.0062599999999999,5.2436422213743e-08,6.1433945892599e-07,0.00047472209365999,5.243639e-08,0,470968989671.59,5.4508820921487e-05,470968989671.59,0.0014516569903794,470943319106.54,9420962231352.3,0.00059768081031325,9420962236980.6,0.0045616378107463,9415334866380,895.20041960278,43.280469530743,43280469.530751
0.0062699999999999,6.7053255588113e-09,6.6233707404056e-07,0.00047472209365999,6.70533e-09,0,990202520980.39,1.1037772079364e-05,990202520980.39,0.0014516569903794,990191591471.29,6886216215007.3,0.00014256194160334,6886216215989.6,0.0045616378107463,6885234642588.3,910.6138523593,25.222614596249,25222614.596314
0.0062799999999999,2.9196730590708e-10,9.2272936313937e-06,0.00047472209365999,2.9197e-10,0,659076517442.58,3.9908302287994e-07,659076517442.54,0.0014516569903794,659076254416.44,8853073020901.4,1.5485892866062e-05,8853073021039.4,0.0045616378107463,8852935925284.1,829.82756832486,6.5107902776211,6510790.2776865
0.0062899999999999,7.8097711680557e-11,2.9299864831148e-05,0.00047472209365999,7.81e-11,0,855062770326.78,6.5301102643945e-08,855062770326.65,0.0014516569903794,855062714490.24,5873808271661.5,3.5190292693675e-06,5873808271682.8,0.0045616378107463,5873787601631,827.23692000088,24.162762234172,24162762.234229
0.0062999999999999,3.4024218156113e-09,5.3362350417667e-07,0.00047472209365999,3.40242e-09,0,335817595389.59,2.0825905788825e-06,335817595389.58,0.0014516569903794,335816896020.48,8235209820602.6,9.2793575906606e-05,8235209821367.5,0.0045616378107463,8234445716938.9,941.08870652289,3.0179435837286,3017943.583828
0.0063099999999999,1.3504718875521e-11,0.00034954633487623,0.00047472209365999,1.35e-11,0,313419319557.89,2.4080166340334e-09,313419319557.83,0.0014516569903794,313419318803.17,5068411041900,4.2902083393259e-07,5068411041902.7,0.0045616378107463,5068408867447,843.58240285546,8.2289850436536,8228985.0436442
0.0063199999999999,7.0473517164074e-11,4.9910090450884e-05,0.00047472209365999,7.047e-11,0,670966529568.94,6.2630658940793e-08,670966529568.84,0.0014516569903794,670966487545.87,6808813551712.6,3.7270345015426e-06,6808813551738.7,0.0045616378107463,6808788175124.2,817.79993620439,17.988481775865,17988481.775884
0.0063299999999999,4.48926144872e-09,3.227079840204e-07,0.00047472209365999,4.48926e-09,0,808417086562.68,6.3599028301694e-06,808417086562.68,0.0014516569903794,808411945141.26,8059513820156.8,0.00010049613348879,8059513820967.5,0.0045616378107463,8058703951568.8,852.69908243691,45.179313909783,45179313.91006
0.0063399999999999,2.6115887310452e-11,0.00015745365805319,0.00047472209365999,2.612e-11,0,588615192564.41,2.6420447184541e-08,588615192564.3,0.0014516569903794,588615177012.93,7490687717476.7,2.4637453743676e-06,7490687717495.9,0.0045616378107463,7490669262374.9,831.18547558147,2.7746554979242,2774655.4995152
0.0063499999999999,8.7399485068189e-08,8.5890956082582e-07,0.00047472209365999,8.739941e-08,0,707320748097.23,0.00012158638376729,707320748097.23,0.0014516569903794,707234757980.53,9165029174075,0.00085793683458995,9165029181932.2,0.0045616378107463,9157172898145,902.0702255409,48.945040755505,48945040.757762
0.0063599999999999,2.2530778811961e-08,9.4040331405611e-07,0.00047472209365999,2.25308e-08,0,353432195486.57,1.3168465767445e-05,353432195486.57,0.0014516569903794,353427541388.09,6945901989391.1,0.00032250170764382,6945901991631.2,0.0045616378107463,6943662646330.4,942.90415553526,39.979530710545,39979530.710536
0.0063699999999999,1.8776266985525e-09,1.7583056729406e-06,0.00047472209365999,1.87763e-09,0,889692411829.81,2.8577074002735e-06,889692411829.8,0.0014516569903794,889689869356.49,6116909340640.6,5.87575847618e-05,6116909341000.6,0.0045616378107463,6116549946938.6,917.31778684963,15.397313730981,15397313.731152
0.0063799999999999,9.8528649572697e-09,5.0313002274566e-07,0.00047472209365999,9.85286e-09,0,403224236116.29,8.562330518011e-06,403224236116.29,0.0014516569903794,403220783606.67,9354722976895.7,0.0001915115262994,9354722978687.8,0.0045616378107463,9352931782654.6,879.59655998102,22.992180265083,22992180.265078
0.0063899999999999,2.2770949314552e-09,2.2258771113013e-06,0.00047472209365999,2.2771e-09,0,743512776746.28,3.1646430763389e-06,743512776746.27,0.0014516569903794,743510423801.16,6767346550665.4,6.7728159691853e-05,6767346551124.3,0.0045616378107463,6766888241777.9,920.04601122038,10.787558873632,10787558.873662
0.0063999999999999,1.9260443163815e-08,3.5493381454147e-07,0.00047472209365999,1.926045e-08,0,552509454795.18,2.2419906496288e-05,552509454795.18,0.0014516569903794,552497067862.57,7535841732241.4,0.00029089698281086,7535841734433.7,0.0045616378107463,7533650216124,922.89033292329,35.113442148908,35113442.149078
0.0064099999999999,2.0867601322009e-10,1.9104753246781e-05,0.00047472209365999,2.0868e-10,0,485337813130.7,2.1606759968641e-07,485337813130.65,0.0014516569903794,485337708264.95,5232484676257,1.1402020102321e-05,5232484676317.2,0.0045616378107463,5232425016041.8,905.68551793812,14.00497172075,14004971.720839
0.0064199999999999,1.7182173130932e-09,1.5637734680373e-06,0.00047472209365999,1.71822e-09,0,574675618938.82,2.288492077355e-06,574675618938.81,0.0014516569903794,574674303801.22,9676375486662.5,5.5933474635267e-05,9676375487204.6,0.0045616378107463,9675834283631,863.44793893606,4.7639467455918,4763946.7455791
0.0064299999999999,1.7641071812373e-09,1.5978383797513e-06,0.00047472209365999,1.76411e-09,0,649002936385.78,2.2280283899719e-06,649002936385.77,0.0014516569903794,649001490392.03,7438241919292.9,5.1964049720655e-05,7438241919680.2,0.0045616378107463,7437855418204.2,860.00854774448,37.670031177816,37670031.178412
0.0064399999999999,2.0388646021306e-10,1.7361258218674e-05,0.00047472209365999,2.0389e-10,0,411315168525.12,1.3525185265152e-07,411315168525.07,0.0014516569903794,411315112893.99,7631719887168.3,8.6181052519505e-06,7631719887234.9,0.0045616378107463,7631654116769.9,809.45114821952,36.077490602561,36077490.602582
0.0064499999999999,2.4402352475679e-10,1.4444540553986e-05,0.00047472209365999,2.4402e-10,0,815889854235.58,3.4632484278161e-07,815889854235.52,0.0014516569903794,815889571672.75,5597970014967.9,1.1830020575895e-05,5597970015034.7,0.0045616378107463,5597903791650.9,872.33351185628,22.325141963331,22325141.963336
0.0064599999999999,8.7950270329896e-10,3.0736770424757e-06,0.00047472209365999,8.795e-10,0,785914448633.99,1.3729456715233e-06,785914448633.97,0.0014516569903794,785913369617.63,9994148932314,3.3515478636e-05,9994148932649.9,0.0045616378107463,9993813984854.9,813.60321069657,6.1243384000382,6124338.4000956
0.0064699999999999,7.3297317525484e-11,3.6595832420827e-05,0.00047472209365999,7.33e-11,0,429395665058.39,2.3996949095453e-08,429395665058.31,0.0014516569903794,429395654754.2,5292637621663.7,9.522928813623e-07,5292637621669.3,0.0045616378107463,5292632581527.4,803.90789713085,47.81990243401,47819902.435508
0.0064799999999999,1.5309166340602e-08,4.1417050151999e-07,0.00047472209365999,1.530916e-08,0,830260234889.38,2.2935387213456e-05,830260234889.38,0.0014516569903794,830241192986.14,8558490970337.6,0.00024537541789942,8558490972438,0.0045616378107463,8556391442211.7,871.86917763187,44.073648677228,44073648.677232
0.0064899999999999,2.2237826109405e-08,2.7473041201106e-07,0.00047472209365999,2.223782e-08,0,730912678399.36,3.4581531226887e-05,730912678399.36,0.0014516569903794,730887403193.81,8295478841697,0.00035056626303052,8295478844604.9,0.0045616378107463,8292571745809.2,930.26374060545,15.882659856134,15882659.856467
0.0064999999999999,4.6115111446328e-11,0.00010599639358973,0.00047472209365999,4.612e-11,0,650838947233.87,2.4188089075673e-08,650838947233.75,0.0014516569903794,650838931491.32,5455066521407.8,1.9352020540184e-06,5455066521418.9,0.0045616378107463,5455055964772.3,837.0198158535,18.474900727064,18474900.727042
0.0065099999999999,1.4584915531121e-10,5.791489851867e-06,0.00047472209365999,1.4585e-10,0,824726160934.63,1.6870474163785e-07,824726160934.54,0.0014516569903794,824726021799.44,7212829866037.8,6.8155490881834e-06,7212829866087.7,0.0045616378107463,7212780706976.8,806.18144895293,28.909855078533,28909855.078546
0.0065199999999999,6.2394655199538e-10,5.526091228051e-06,0.00047472209365999,6.2395e-10,0,734729219306.49,7.231472004017e-07,734729219306.45,0.0014516569903794,734728687989.49,7091452703482.7,2.1693652585566e-05,7091452703637.3,0.0045616378107463,7091298867308.7,826.2607755852,49.524264726697,49524264.726788
0.0065299999999999,1.5314242742798e-10,1.5851038155487e-05,0.00047472209365999,1.5314e-10,0,638728842690.8,2.1487699157972e-07,638728842690.74,0.0014516569903794,638728705442.7,6342794877110.5,9.343915620197e-06,6342794877170.4,0.0045616378107463,6342735611124.1,878.05964161414,7.5995907933309,7599590.7948755
0.0065399999999999,3.9589446271932e-10,1.3986563988758e-05,0.00047472209365999,3.959e-10,0,537220192483.24,4.448426994744e-07,537220192483.2,0.0014516569903794,537219953504.86,5034426629722.6,1.6345648129782e-05,5034426629805.4,0.0045616378107463,5034344340101.5,898.31911598454,31.479084099861,31479084.100021
0.0065499999999999,1.638759530737e-08,2.8635247770262e-07,0.00047472209365999,1.63876e-08,0,627394272146.32,2.0629211916531e-05,627394272146.32,0.0014516569903794,627381329763.92,7301914142575.8,0.00025960571632113,7301914144471.7,0.0045616378107463,7300019015910,924.70604345488,32.935016555867,32935016.555887
0.0065599999999999,1.0830762564075e-09,5.776549495155e-06,0.00047472209365999,1.08307e-09,0,961921537803.05,1.8297674666324e-06,961921537803.04,0.0014516569903794,961919777713.54,8834584645635.4,3.9505035330748e-05,8834584645985.3,0.0045616378107463,8834235648844,858.64567658141,5.5415298006816,5541529.8009651
0.0065699999999999,2.702831310689e-10,1.1584537872436e-05,0.00047472209365999,2.7028e-10,0,952742812228.57,3.6259308842084e-07,952742812228.5,0.0014516569903794,952742466770.73,6530177987342.4,1.1790635306128e-05,6530177987420.1,0.0045616378107463,6530100993303.1,832.59421444608,31.994788320817,31994788.321063
0.0065799999999999,1.4856694119804e-10,2.0588288065597e-05,0.00047472209365999,1.4857e-10,0,359076669047.68,4.8713205504856e-08,359076669047.62,0.0014516569903794,359076651555.9,6678239214587.1,5.1918016642694e-06,6678239214622.4,0.0045616378107463,6678204542673.6,811.70249861398,46.428337626846,46428337.626867
0.0065899999999999,8.9905955000168e-11,4.4989432005983e-05,0.00047472209365999,8.991e-11,0,612718834872.98,9.1093386273792e-08,612718834872.89,0.0014516569903794,612718779058.35,5687936455414.2,4.8417240354281e-06,5687936455442.3,0.0045616378107463,5687908916128.9,857.99732059416,17.167104980548,17167104.980892
0.0065999999999999,1.1100730833267e-09,2.7775966505781e-06,0.00047472209365999,1.11007e-09,0,941710290907.29,1.7978381643919e-06,941710290907.27,0.0014516569903794,941708597867.63,5156668472241.3,3.8156911372563e-05,5156668472438.5,0.0045616378107463,5156471717207,913.00066395514,25.991674556949,25991674.556933
0.0066099999999999,3.5542546801771e-08,1.0354297162785e-06,0.00047472209365999,3.554251e-08,0,498848301704.49,3.7682422814246e-05,498848301704.49,0.0014516569903794,498829504600.19,9775766266749.8,0.00046163829362252,9775766271261.6,0.0045616378107463,9771255481043,883.46377822016,35.441935931466,35441935.931474
0.0066199999999999,2.0706191023447e-08,4.9427101632881e-08,0.00047472209365999,2.070619e-08,0,599451938588.55,2.949586170631e-05,599451938588.55,0.0014516569903794,599434257758.58,8429407978774.2,0.00033646204022887,8429407981610.3,0.0045616378107463,8426572756912.3,935.46861607082,12.983718239134,12983718.239257
0.0066299999999999,5.7118890018693e-11,1.943244585489e-05,0.00047472209365999,5.712e-11,0,903152196992.02,9.3671470334723e-08,903152196991.9,0.0014516569903794,903152112392.44,7000303024793.9,4.4488239629401e-06,7000303024825.8,0.0045616378107463,7000271881816.6,843.08349344291,4.1028927667177,4102892.766707
0.0066399999999999,1.7887357036923e-09,3.188682613654e-06,0.00047472209365999,1.78873e-09,0,415403405975.71,1.6725289221552e-06,415403405975.7,0.0014516569903794,415402711202.66,9839401709496.2,5.6965246586931e-05,9839401710057.7,0.0045616378107463,9838841237479,835.12497490978,12.304645756544,12304645.756548
0.0066499999999999,4.3975209255546e-09,2.0635323528229e-06,0.00047472209365999,4.39753e-09,0,723381314063.92,5.5770829899204e-06,723381314063.91,0.0014516569903794,723377279728.79,6454508800523.5,9.7487932760859e-05,6454508801153.3,0.0045616378107463,6453879625140.6,891.86966684875,48.387819798896,48387819.799729
0.0066599999999999,4.4984379028215e-09,1.7567954779052e-06,0.00047472209365999,4.49843e-09,0,925070598655.3,7.2969692446417e-06,925070598655.3,0.0014516569903794,925063848492.85,9716023510490.2,0.00010828102154314,9716023511543.2,0.0045616378107463,9714971563445.1,819.88293792041,28.600955115482,28600955.115557
0.0066699999999999,3.3571430927969e-09,9.2125943333197e-07,0.00047472209365999,3.35714e-09,0,456577370608.47,3.3930082484489e-06,456577370608.46,0.0014516569903794,456575821442.94,7908492210728.4,8.8209592457396e-05,7908492211426.8,0.0045616378107463,7907794667383.6,888.14125301392,23.360364187581,23360364.187578
0.0066799999999999,5.0291543753125e-09,8.6999045858237e-07,0.00047472209365999,5.02915e-09,0,881888823843.5,7.4170830270048e-06,881888823843.49,0.0014516569903794,881882282849.39,7157713765438.8,0.00011160164593139,7157713766238.2,0.0045616378107463,7156915041940.3,886.08413872338,36.5465157638,36546515.763824
0.0066899999999999,6.5660913265105e-09,2.020244137824e-07,0.00047472209365999,6.56609e-09,0,448758328948.77,6.5595268912537e-06,448758328948.76,0.0014516569903794,448755385325.75,8982865284175.3,0.00013867427731112,8982865285421.7,0.0045616378107463,8981619764545.4,868.05210786849,30.00570869247,30005708.692446
0.0066999999999999,2.0351609969863e-09,4.8988105008462e-07,0.00047472209365999,2.03516e-09,0,420746746337.37,1.6658642656594e-06,420746746337.36,0.0014516569903794,420746045431.57,8108232159036.9,5.6419912503318e-05,8108232159495.1,0.0045616378107463,8107774719096.6,847.39006239278,42.97139854951,42971398.549543
0.0067099999999999,1.3631633782948e-10,2.6864513822613e-05,0.00047472209365999,1.3632e-10,0,492978055987.99,1.670581307173e-07,492978055987.93,0.0014516569903794,492977973632.01,7671275089443.5,9.0095138065849e-06,7671275089513.3,0.0045616378107463,7671205975607.3,865.07025847154,3.6518442110379,3651844.2122232
0.0067199999999999,7.3010284824292e-11,3.9011682242844e-06,0.00047472209365999,7.301e-11,0,512399843408.63,6.3815731779843e-08,512399843408.55,0.0014516569903794,512399810709.46,6094116427986.1,4.2091084013732e-06,6094116428012.3,0.0045616378107463,6094090777297.4,851.40282922845,13.885456733968,13885456.734002
0.0067299999999999,2.5894557549059e-09,2.2224433469835e-06,0.00047472209365999,2.58945e-09,0,442825189389.52,2.5033978560714e-06,442825189389.51,0.0014516569903794,442824080824.66,9230490558377.1,7.4029059279129e-05,9230490559061.3,0.0045616378107463,9229807284426.5,850.05564647125,20.27385733323,20273857.333241
0.0067399999999999,6.07767154659e-09,1.8998413938761e-06,0.00047472209365999,6.07766e-09,0,718958575346.22,8.6285846470828e-06,718958575346.21,0.0014516569903794,718952371804.82,9882520765503.6,0.00013400145732092,9882520766828.7,0.0045616378107463,9881196670749.7,821.91396420929,34.545330614079,34545330.614067
0.0067499999999999,1.2280915570306e-08,4.535744063561e-07,0.00047472209365999,1.228091e-08,0,394401903095.82,1.0450151078027e-05,394401903095.82,0.0014516569903794,394397781579.42,9480330879220.9,0.0002282433379666,9480330881385.1,0.0045616378107463,9478167550621.3,904.01511927755,11.46090202417,11460902.024312
0.0067599999999999,1.5100015394146e-08,1.6817326071928e-06,0.00047472209365999,1.509999e-08,0,863405249155.6,2.2432371809262e-05,863405249155.6,0.0014516569903794,863385881362.49,9931708663435.9,0.00025955051771558,9931708666014,0.0045616378107463,9929131552201,845.46753647175,32.468878855576,32468878.855671
0.0067699999999999,2.131480287024e-09,1.3465946876037e-07,0.00047472209365999,2.13148e-09,0,389858987780.07,1.6734463345385e-06,389858987780.06,0.0014516569903794,389858335373.07,9139405039978.9,6.5427820895557e-05,9139405040577.7,0.0045616378107463,9138807107744.2,856.94741747538,15.994600290675,15994600.290741
0.0067799999999999,8.3583976542546e-09,9.1575705707118e-07,0.00047472209365999,8.35839e-09,0,930029714518.42,1.4619765764354e-05,930029714518.42,0.0014516569903794,930016117900.62,8946174283843.7,0.00017337769245533,8946174285395.4,0.0045616378107463,8944623485663.9,896.29053808988,9.2217788720312,9221778.8720092
0.0067899999999999,7.9595452300607e-10,5.6825253699398e-06,0.00047472209365999,7.9595e-10,0,372083316014.72,5.3659880399927e-07,372083316014.7,0.0014516569903794,372083116355.37,8178142952304.1,2.9190111734111e-05,8178142952543.6,0.0045616378107463,8177904238365.6,838.60085608264,30.752050024419,30752050.024524
0.0067999999999999,2.3142850687752e-07,9.803361784378e-07,0.00047472209365999,2.3142828e-07,0,796453837653.37,0.00033626006910077,796453837653.37,0.0014516569903794,796186112056.31,9307753745833.2,0.0017397180260255,9307753761998.9,0.0045616378107463,9291589000957.8,932.33452166042,40.837006090541,40837006.090539
0.0068099999999999,9.2361952954984e-10,5.0935466943127e-07,0.00047472209365999,9.2362e-10,0,633237384638.29,1.1761967495191e-06,633237384638.27,0.0014516569903794,633236639827.41,5764898779604,3.5108852719983e-05,5764898779807,0.0045616378107463,5764696387727.6,916.76244793808,16.510276719287,16510276.719455
0.0068199999999999,2.803477701198e-10,7.9539154530704e-06,0.00047472209365999,2.8035e-10,0,839357637065.46,4.1931388260091e-07,839357637065.41,0.0014516569903794,839357285111.3,5306737169164.1,1.3500913525643e-05,5306737169236.3,0.0045616378107463,5306665524331.8,885.08526331338,21.109791726712,21109791.726709
0.0068299999999999,1.3730835545863e-08,1.1321874888354e-06,0.00047472209365999,1.373082e-08,0,616559470786.19,1.8072144124709e-05,616559470786.19,0.0014516569903794,616548328435.94,9267262926335,0.00022965183653986,9267262928463.7,0.0045616378107463,9265135171027.2,861.89970970851,39.906459737703,39906459.737792
0.0068399999999999,1.7665932227976e-10,3.8362970797296e-06,0.00047472209365999,1.7666e-10,0,306817051045.8,6.7249148038419e-08,306817051045.75,0.0014516569903794,306817030412.61,8348037725605.6,9.3028551629226e-06,8348037725684.1,0.0045616378107463,8347960065742.2,805.15379606737,24.775408399955,24775408.399968
0.0068499999999999,1.0987970538672e-09,2.6812275222994e-06,0.00047472209365999,1.0988e-09,0,774006608591.42,1.5063234387458e-06,774006608591.4,0.0014516569903794,774005442688.88,7766744014499.1,3.5809358117178e-05,7766744014778,0.0045616378107463,7766465902340.3,834.24564162949,38.354349387631,38354349.38762
0.0068599999999999,4.9983567005622e-09,6.6010408180969e-07,0.00047472209365999,4.99836e-09,0,798847840128.25,6.823953924031e-06,798847840128.24,0.0014516569903794,798842388864.59,7279075375121.6,0.00010877937872743,7279075375914,0.0045616378107463,7278283647948.2,875.43581743915,45.461822389572,45461822.389573
0.0068699999999999,3.0170407020263e-10,1.3490893713573e-05,0.00047472209365999,3.017e-10,0,569508745921.37,3.465726355073e-07,569508745921.33,0.0014516569903794,569508548545.29,8642276112586.9,1.4975599681301e-05,8642276112717.2,0.0045616378107463,8642146691257.7,808.97730524555,19.634308016343,19634308.016564
0.0068799999999999,2.5089989004199e-07,1.2357214427499e-06,0.00047472209365999,2.5089958e-07,0,834252084311.33,0.0003929725908836,834252084311.33,0.0014516569903794,833924374889.13,9562612019813.4,0.0019060496918021,9562612038006.5,0.0045616378107463,9544419881240.3,946.20910381608,26.428778992376,26428778.992382
0.0068899999999999,7.5934704431615e-09,1.2585584575708e-06,0.00047472209365999,7.59348e-09,0,676354945739.63,9.5737461630592e-06,676354945739.62,0.0014516569903794,676348470551.05,6595509430347.9,0.00014529047073874,6595509431306.7,0.0045616378107463,6594551304884.5,911.35375792068,41.181400221528,41181400.221566
0.0068999999999999,4.649750250512e-08,9.1413853684557e-07,0.00047472209365999,4.649746e-08,0,901270588403.48,7.868121048495e-05,901270588403.48,0.0014516569903794,901199680921.69,8777792556958.5,0.0005872843874154,8777792562111.5,0.0045616378107463,8772640522143.5,927.14074504357,19.04233764608,19042337.646178
0.0069099999999999,2.7964393950526e-10,1.4087774482627e-05,0.00047472209365999,2.7964e-10,0,763489932986.06,3.8902262815017e-07,763489932986.01,0.0014516569903794,763489635971.31,7123465544287.5,1.3687517209178e-05,7123465544385.7,0.0045616378107463,7123368043064.8,841.29515484366,20.14774310612,20147743.106128
0.0069199999999999,9.5285885026435e-09,1.2066155085328e-06,0.00047472209365999,9.5286e-09,0,377599982948.23,5.9740092910927e-06,377599982948.23,0.0014516569903794,377597727175.9,6362525389864.5,0.00016775363824314,6362525390932.3,0.0045616378107463,6361458232101.5,923.59347525162,49.337242222099,49337242.222445
0.0069299999999999,3.273190782196e-08,6.775659212284e-07,0.00047472209365999,3.273193e-08,0,509779679468.57,3.4503254405651e-05,509779679468.57,0.0014516569903794,509762091017.46,7381223876263.2,0.0004141494756703,7381223879319.6,0.0045616378107463,7378168211766.9,930.65472496075,44.347068932809,44347068.932819
0.0069399999999999,3.1298826837836e-09,8.5747172513386e-07,0.00047472209365999,3.12988e-09,0,915166328151.41,4.5959591680794e-06,915166328151.4,0.0014516569903794,915162122103.66,6202186235613.9,7.7243226073261e-05,6202186236093.5,0.0045616378107463,6201707195742.9,890.80702025881,42.090106190752,42090106.190777
0.0069499999999999,4.8530566815038e-09,6.8379459259656e-07,0.00047472209365999,4.85306e-09,0,564570836519.33,5.8712856811204e-06,564570836519.33,0.0014516569903794,564567521782.13,7849860663688.6,0.00011037703130382,7849860664555.8,0.0045616378107463,7848994314997.4,881.37884881915,34.157588944371,34157588.944369
0.0069599999999999,1.14969091688e-07,1.0166208063007e-07,0.00047472209365999,1.1496908e-07,0,538216848656.89,0.00012713186896233,538216848656.89,0.0014516569903794,538148432840.84,8459769932523,0.0010490444423384,8459769941389.3,0.0045616378107463,8450904558063.7,940.47036442173,41.540562952673,41540562.95267
0.0069699999999999,9.7521822285077e-08,1.2539268426907e-06,0.00047472209365999,9.75217e-08,0,776780306347.34,0.00013965270026289,776780306347.34,0.0014516569903794,776671842027.39,9643814767447,0.00093402773731963,9643814776447.2,0.0045616378107463,9634815582449,894.19763573827,45.901946146941,45901946.146929
0.0069799999999999,1.80479438979e-09,3.1084940400376e-06,0.00047472209365999,1.8048e-09,0,518274428281.84,1.9995722479945e-06,518274428281.83,0.0014516569903794,518273391956.75,5520158115480.6,5.4550378604978e-05,5520158115782.2,0.0045616378107463,5519857005191.1,928.69512251787,27.089957106533,27089957.106578
0.0069899999999999,5.3964259379584e-11,7.8935870713717e-05,0.00047472209365999,5.396e-11,0,603455182916.1,7.1908166521626e-08,603455182916.01,0.0014516569903794,603455139522.75,6196267077152.2,4.7391579405421e-06,6196267077182.1,0.0045616378107463,6196237712203,888.62246198358,2.0787475303005,2078747.530486
0.0069999999999999,4.7423956947975e-09,1.2008285918287e-06,0.00047472209365999,4.74239e-09,0,768328371042.95,7.3046211977846e-06,768328371042.94,0.0014516569903794,768322758736.24,9581549669905.9,0.00011555126894361,9581549671013.9,0.0045616378107463,9580442637602.1,859.30946420287,12.280137347032,12280137.347042
0.0070099999999999,1.7302975291798e-08,1.4617043800375e-06,0.00047472209365999,1.730295e-08,0,732762408948.37,2.3858489155873e-05,732762408948.37,0.0014516569903794,732744926761.48,9913918218808.1,0.0002816471264406,9913918221600.6,0.0045616378107463,9911126778431.2,849.903799901,36.466564492997,36466564.493182
0.0070199999999999,4.3215199106319e-08,6.7352086963966e-07,0.00047472209365999,4.321517e-08,0,927080120258.03,7.1494813466684e-05,927080120258.03,0.0014516569903794,927013843576.2,8227941945473.9,0.0005647459762632,8227941950118.8,0.0045616378107463,8223297871089.5,945.55173549181,15.179854960682,15179854.96076
0.0070299999999999,9.6207618918968e-12,7.9198741866752e-05,0.00047472209365999,9.62e-12,0,630777308743.72,1.3465676612465e-08,630777308743.6,0.0014516569903794,630777300249.88,6471755353858.9,5.5324850331155e-07,6471755353863.1,0.0045616378107463,6471751773371.9,805.3728652097,4.6855731955204,4685573.1955323
0.0070399999999999,3.8433550742418e-09,1.2816281021029e-06,0.00047472209365999,3.84336e-09,0,532911898362.88,4.1509024994369e-06,532911898362.88,0.0014516569903794,532909686306.73,6771325736415,9.1978601150656e-05,6771325737038.4,0.0045616378107463,6770702976626.4,904.17083943109,33.747198736725,33747198.737082
0.0070499999999999,7.1827581287468e-09,1.6527402700115e-06,0.00047472209365999,7.18277e-09,0,467905591416.52,7.025175328683e-06,467905591416.51,0.0014516569903794,467902304320.79,5711836886221.9,0.00013810018756964,5711836887011.2,0.0045616378107463,5711048189395.8,933.02813177413,47.999801594651,47999801.59468
0.0070599999999999,8.8146004146239e-09,1.1815210854313e-06,0.00047472209365999,8.81459e-09,0,618452962091.29,1.1777489847433e-05,618452962091.28,0.0014516569903794,618445678353.59,9829080443696.6,0.00017519607333565,9829080445419.3,0.0045616378107463,9827358729036,846.76533913115,28.60178448737,28601784.487453
0.0070699999999999,1.6667990802428e-08,4.8141830163222e-08,0.00047472209365999,1.666799e-08,0,472575096908.64,1.8829253216994e-05,472575096908.64,0.0014516569903794,472566198840.02,8475397360389.9,0.00027680666603844,8475397362736.2,0.0045616378107463,8473051963124.8,913.28525442142,23.865712403878,23865712.403872
0.0070799999999999,1.5763208527661e-09,5.4098541085885e-07,0.00047472209365999,1.57632e-09,0,977616465954.43,2.6441226499681e-06,977616465954.42,0.0014516569903794,977613881023.43,9241656199032.8,5.1339795466024e-05,9241656199508.2,0.0045616378107463,9241181758651.4,815.02921321388,20.614639880226,20614639.880215
0.0070899999999999,3.430457439388e-10,1.2406533165569e-05,0.00047472209365999,3.4305e-10,0,358730887043.63,2.4203515672838e-07,358730887043.59,0.0014516569903794,358730800218.16,7849084648993.6,1.7442150281995e-05,7849084649131.3,0.0045616378107463,7848947746467.4,863.45881077815,9.1983021496692,9198302.1496618
0.0070999999999999,3.0417135388964e-11,9.4168673115873e-05,0.00047472209365999,3.042e-11,0,711266432027.55,1.7444755484237e-08,711266432027.42,0.0014516569903794,711266419619.69,5171975939245.7,3.9334770549539e-07,5171975939248.2,0.0045616378107463,5171973904861.6,804.02320389243,21.247636922726,21247636.922722
0.0071099999999999,8.1902758773388e-09,1.7243176052881e-06,0.00047472209365999,8.19029e-09,0,379179721551.45,5.775296963884e-06,379179721551.44,0.0014516569903794,379177531688.6,6733341713380.9,0.00016284405323119,6733341714477.8,0.0045616378107463,6732245407251.4,938.97527802866,26.500651710922,26500651.710934
0.0071199999999999,2.4313068440932e-10,2.8149932774539e-06,0.00047472209365999,2.4313e-10,0,554300020495.04,2.2334273904004e-07,554300020494.99,0.0014516569903794,554299896696.18,6272609088405.8,9.8406217504965e-06,6272609088468.1,0.0045616378107463,6272547362639.8,840.9759292932,38.72841869231,38728418.69232
0.0071299999999999,9.8674338036797e-08,1.1962273114747e-06,0.00047472209365999,9.867422e-08,0,703077205706.63,0.00013934060358268,703077205706.62,0.0014516569903794,702979252153.32,9678237851114.7,0.00097238624325325,9678237860517.5,0.0045616378107463,9668836007992.2,918.50037836145,27.482538227095,27482538.227106
0.0071399999999999,1.3346256844712e-09,3.2335020461783e-06,0.00047472209365999,1.33463e-09,0,810415109266.26,2.0305333959248e-06,810415109266.25,0.0014516569903794,810413463694.66,8004017213311.2,4.5393658215999e-05,8004017213675.3,0.0045616378107463,8003653898181.6,853.90165316555,21.107204188023,21107204.18804
0.0071499999999999,9.7130743819326e-09,1.6079401528834e-06,0.00047472209365999,9.71309e-09,0,365163888471.06,5.8348560106994e-06,365163888471.05,0.0014516569903794,365161757804.78,6642026078796,0.00017339139420272,6642026079948.2,0.0045616378107463,6640874608289,927.30152681091,40.967209886111,40967209.886216
0.0071599999999999,1.8921053374364e-09,2.4642138036561e-06,0.00047472209365999,1.89211e-09,0,578281779742.24,2.3449207622289e-06,578281779742.23,0.0014516569903794,578280423720.47,7477144709160,5.8569542541829e-05,7477144709598.7,0.0045616378107463,7476706801862.9,882.13654136982,22.590646058728,22590646.058772
0.0071699999999999,8.0281026068482e-08,6.984031456412e-07,0.00047472209365999,8.028097e-08,0,477815867499.64,8.5109855251002e-05,477815867499.64,0.0014516569903794,477775204121.17,9380590857541.3,0.00080336908453765,9380590865072.2,0.0045616378107463,9373060830242.8,900.16830074461,49.851305903569,49851305.903835
0.0071799999999999,4.0556070803879e-11,9.6873671625022e-05,0.00047472209365999,4.056e-11,0,878250117064.12,1.8838934805638e-08,878250117063.96,0.0014516569903794,878250100518.82,5042541284228.1,8.2238560803779e-07,5042541284232.8,0.0045616378107463,5042537137318.2,813.04301858009,25.165206534484,25165206.534668
0.0071899999999999,4.6833743962475e-10,5.4669156047761e-06,0.00047472209365999,4.6834e-10,0,303205962005.25,1.9566678314775e-07,303205962005.22,0.0014516569903794,303205902677.92,6661983466363.2,2.1848774565595e-05,6661983466509.4,0.0045616378107463,6661837913368.4,916.64247646273,5.6587576873802,5658757.687458
0.0071999999999999,1.5901354970522e-10,2.2323786037484e-05,0.00047472209365999,1.5901e-10,0,872718294238.75,1.4760966396324e-07,872718294238.65,0.0014516569903794,872718165417.11,6207595003108.5,6.0508716591894e-06,6207595003146.7,0.0045616378107463,6207557441975.1,814.19181203309,42.761750302122,42761750.303048
0.0072099999999999,4.3321829949083e-08,2.296552338304e-07,0.00047472209365999,4.332182e-08,0,774930761077.49,6.225622374315e-05,774930761077.48,0.0014516569903794,774882519817.96,7893053448613.3,0.00053166939556032,7893053452808.3,0.0045616378107463,7888859183619.5,935.25974375335,29.659166995646,29659166.99567
0.0072199999999999,9.5546431807522e-11,3.7343720339831e-05,0.00047472209365999,9.555e-11,0,580390275362.22,1.0957973880932e-07,580390275362.15,0.0014516569903794,580390211763.21,7530091800584.1,6.1840903239452e-06,7530091800631.4,0.0045616378107463,7530045234104.2,831.55842643171,9.3703815222846,9370381.5223641
0.0072299999999999,3.3663642831266e-09,1.2723317247362e-06,0.00047472209365999,3.36636e-09,0,844051485666.38,5.3559897158454e-06,844051485666.37,0.0014516569903794,844046964959.52,9787096293738,8.9949002338352e-05,9787096294619.3,0.0045616378107463,9786216033369.2,820.82455697936,21.824510650536,21824510.650569
0.0072399999999999,6.7535320222994e-09,2.9944330592009e-07,0.00047472209365999,6.75353e-09,0,520235067544.05,7.273960685378e-06,520235067544.05,0.0014516569903794,520231283402.15,8339682688169,0.00013491493998999,8339682689294.9,0.0045616378107463,8338557692158.4,860.60196091767,49.300167024757,49300167.025053
0.0072499999999999,8.7779561146373e-08,1.3059679969299e-08,0.00047472209365999,8.777956e-08,0,745193504976.13,0.00011632458859632,745193504976.13,0.0014516569903794,745106830730.58,7720755994759.6,0.00085116327068186,7720756001326.4,0.0045616378107463,7714189959602.9,944.97173917559,40.799659358894,40799659.35893
0.0072599999999999,1.0506904735106e-10,9.0668025511069e-06,0.00047472209365999,1.0507e-10,0,782173522278,1.121012518933e-07,782173522277.9,0.0014516569903794,782173434595.37,6811288151061.9,5.2603922566801e-06,6811288151098.4,0.0045616378107463,6811252321202.9,817.52687241581,22.865885178751,22865885.178828
0.0072699999999999,3.8980133921445e-08,6.1368336671704e-07,0.00047472209365999,3.898011e-08,0,886323041488.1,5.8639381770663e-05,886323041488.1,0.0014516569903794,886271071100.41,8186124890544.3,0.00047644547623565,8186124894443.5,0.0045616378107463,8182226505740.1,902.00535854657,45.780290214263,45780290.214407
0.0072799999999999,5.7767911613216e-11,3.6150022231046e-05,0.00047472209365999,5.777e-11,0,440514677348.11,4.652101376567e-08,440514677348.04,0.0014516569903794,440514656854.92,7652535610307.2,4.1120129788823e-06,7652535610339.4,0.0045616378107463,7652504143110.8,826.71424650493,7.3333667446748,7333366.7457601
0.0072899999999999,3.4464601691894e-09,4.9090788348057e-08,0.00047472209365999,3.44646e-09,0,862726461249.62,5.6937654635463e-06,862726461249.61,0.0014516569903794,862721549115.46,8812850762572.1,9.1739065779393e-05,8812850763381.4,0.0045616378107463,8812042354038.9,875.60631063608,10.21536980687,10215369.806859
0.0072999999999999,1.3755311483011e-09,8.3480632352708e-07,0.00047472209365999,1.37553e-09,0,891364924579.59,2.0752137259984e-06,891364924579.57,0.0014516569903794,891363074810.7,8763276914607.3,4.2886961813692e-05,8763276914984,0.0045616378107463,8762901100402.4,810.06456339868,35.71350813308,35713508.133286
0.0073099999999999,8.1795648161483e-09,6.3375601194505e-07,0.00047472209365999,8.17957e-09,0,595320036404.64,1.044612073914e-05,595320036404.64,0.0014516569903794,595313817684.63,7607050578158.5,0.00016473890826584,7607050579412.3,0.0045616378107463,7605797607364.2,912.05981369523,24.243411031102,24243411.03111
0.0073199999999999,9.5172503541984e-10,5.290862688599e-06,0.00047472209365999,9.5172e-10,0,426113178702.86,8.741475365301e-07,426113178702.84,0.0014516569903794,426112806217.4,9880001814032.7,3.501959812849e-05,9880001814379.7,0.0045616378107463,9879655832455.8,801.24792249598,17.461779656676,17461779.656694
0.0073299999999999,2.636699841445e-09,6.0133875289002e-08,0.00047472209365999,2.6367e-09,0,374496557864.76,1.7256607313852e-06,374496557864.76,0.0014516569903794,374495911611.88,8875309114218.2,6.7699752418447e-05,8875309114819.9,0.0045616378107463,8874708298663.6,831.30451054586,45.382999433688,45382999.433982
0.0073399999999999,5.8114147881054e-10,2.5446717525473e-06,0.00047472209365999,5.8114e-10,0,587563787653.79,7.3270366665563e-07,587563787653.77,0.0014516569903794,587563357143.96,6415806133913.1,2.592320762132e-05,6415806134080.1,0.0045616378107463,6415639819950,931.60395395471,3.3228266636899,3322826.6652679
0.0073499999999999,3.2972608178614e-08,1.1578901393197e-06,0.00047472209365999,3.297257e-08,0,545466146815.88,3.6604122886042e-05,545466146815.88,0.0014516569903794,545446181236.84,9998357116143.3,0.00044849249560039,9998357120626.5,0.0045616378107463,9993874938231.5,882.66428522209,28.336738709326,28336738.709518
0.0073599999999999,5.1637819037003e-10,3.5044540300191e-06,0.00047472209365999,5.1638e-10,0,714943551146.17,7.714695334122e-07,714943551146.14,0.0014516569903794,714942999589.43,7904983649797.8,2.3732756696829e-05,7904983649986.2,0.0045616378107463,7904796047196.4,879.93970974655,4.1832596574721,4183259.6576561
0.0073699999999999,1.4665298120707e-10,2.0328721906324e-05,0.00047472209365999,1.4665e-10,0,640603532194.53,1.1614475257285e-07,640603532194.45,0.0014516569903794,640603457791.8,5826899629990.2,5.5569096041262e-06,5826899630023.1,0.0045616378107463,5826867250615.6,833.03412503739,39.456277281647,39456277.282382
0.0073799999999999,4.1616499532691e-09,2.4141162274431e-06,0.00047472209365999,4.16166e-09,0,668799178072.55,5.3923683969299e-06,668799178072.55,0.0014516569903794,668795571680.45,5557454604243.7,9.3930848428545e-05,5557454604766.2,0.0045616378107463,5556932636846.4,921.01368266853,44.095789648245,44095789.648261
0.0073899999999999,2.6195146678427e-11,0.0001852412813958,0.00047472209365999,2.62e-11,0,507774452356.59,8.7610127420382e-09,507774452356.49,0.0014516569903794,507774447907.97,5253785549907,9.0825125278817e-07,5253785549912.3,0.0045616378107463,5253780778154,836.71112254674,13.503060854711,13503060.855164
0.0073999999999999,4.6576120591883e-10,2.5891421114683e-06,0.00047472209365999,4.6576e-10,0,326126525542.51,2.3945977476047e-07,326126525542.48,0.0014516569903794,326126447448.35,6000102693759,2.1561044039624e-05,6000102693889,0.0045616378107463,5999973328069.8,910.35405111349,13.702180669089,13702180.867343
0.0074099999999999,1.2257339284283e-10,2.7680858524631e-05,0.00047472209365999,1.2257e-10,0,454059604525.13,9.2671886048485e-08,454059604525.06,0.0014516569903794,454059562446.57,5301918763115.1,5.5947492047741e-06,5301918763145.3,0.0045616378107463,5301889100375.3,869.87004097703,24.926865293396,24926865.293396
0.0074199999999999,1.1709504545309e-09,3.8817275823433e-07,0.00047472209365999,1.17095e-09,0,314608139850.53,5.035414394177e-07,314608139850.51,0.0014516569903794,314607981432.38,9020378760959.6,3.9760066121346e-05,9020378761319.1,0.0045616378107463,9020020124363,824.96100067708,31.500306461082,31500306.461098
0.0074299999999999,3.9712742983573e-10,6.4718461735618e-06,0.00047472209365999,3.9713e-10,0,601248865539.57,5.0231845136665e-07,601248865539.53,0.0014516569903794,601248563521.32,5222687255623.5,1.8358515522971e-05,5222687255720,0.0045616378107463,5222591376598.7,908.17217988575,19.354542282286,19354542.282307
0.0074399999999999,2.1371224019213e-09,1.1239056952796e-06,0.00047472209365999,2.13712e-09,0,970611290250.1,3.4162752554269e-06,970611290250.09,0.0014516569903794,970607974386.1,6068930447507.1,6.305856054775e-05,6068930447890.4,0.0045616378107463,6068547773619.9,906.76402058269,23.166526885229,23166526.88523
0.0074499999999999,1.0662159395172e-10,1.4949837896638e-05,0.00047472209365999,1.0662e-10,0,826098173119.97,1.1574887808545e-07,826098173119.86,0.0014516569903794,826098077500.04,5099767653315.7,4.8132965915169e-06,5099767653340.7,0.0045616378107463,5099743106739.5,856.25258711656,25.959674188309,25959674.188301
0.0074599999999999,1.7750566800955e-08,9.4650337547891e-07,0.00047472209365999,1.775055e-08,0,627820439319.17,2.4243569386381e-05,627820439319.17,0.0014516569903794,627805219079.78,9705661665094.9,0.00029768035196991,9705661667984.2,0.0045616378107463,9702773340111.9,890.08169870075,16.025901935258,16025901.935256
0.0074699999999999,2.9158404751467e-10,1.3881317900214e-05,0.00047472209365999,2.9158e-10,0,905593336929.65,4.3969153526197e-07,905593336929.59,0.0014516569903794,905592938748.1,6933240504862.8,1.4342315536148e-05,6933240504962.9,0.0045616378107463,6933141067566,844.17717094925,19.013411332039,19013411.332037
0.0074799999999999,1.9108799162467e-07,1.2644697082874e-06,0.00047472209365999,1.9108775e-07,0,811686040138.1,0.00028946939829467,811686040138.1,0.0014516569903794,811451149862.01,9608589136998.6,0.0015338711903646,9608589151715.4,0.0045616378107463,9593873371030.8,927.93661749342,33.670553252024,33670553.252049
0.0074899999999999,8.4830831842551e-11,9.8059949403111e-06,0.00047472209365999,8.483e-11,0,413421422636.03,1.7231790624947e-08,413421422635.95,0.0014516569903794,413421415512.04,5639212563237.8,2.1780347747457e-06,5639212563250.7,0.0045616378107463,5639200280863.5,819.2608759196,42.257431677409,42257431.677424
0.0074999999999999,1.3122188584437e-08,6.541928885097e-07,0.00047472209365999,1.312218e-08,0,797038051029.98,2.129877349944e-05,797038051029.98,0.0014516569903794,797021075458.62,8680567259411,0.00023812508577199,8680567261478.5,0.0045616378107463,8678500690689.7,929.04049932891,6.7912812437427,6791281.2445426
0.0075099999999999,8.0912734936606e-10,3.2759061473467e-06,0.00047472209365999,8.0913e-10,0,734849520170.24,1.1767315037464e-06,734849520170.22,0.0014516569903794,734848655450.68,7148128709904.4,3.2524107935361e-05,7148128710137.6,0.0045616378107463,7147896230955.8,887.58195893468,9.9394415199185,9939441.5199239
0.0075199999999999,5.9019286833302e-10,4.8600163029804e-06,0.00047472209365999,5.9019e-10,0,961004959569.42,8.7355795392401e-07,961004959569.38,0.0014516569903794,961004120076.62,8080455448699.1,2.2265236775199e-05,8080455448879.8,0.0045616378107463,8080275539451,807.44023719762,34.655570006975,34655570.007146
0.0075299999999999,1.5362124674171e-08,3.0426598286918e-07,0.00047472209365999,1.536212e-08,0,921855237595.48,2.6206004871462e-05,921855237595.48,0.0014516569903794,921831080085.7,7223206860619.2,0.00027244971803633,7223206862587.3,0.0045616378107463,7221239435971,948.38580211933,12.681779561982,12681779.562106
0.0075399999999999,7.2152407653894e-09,1.0607955164629e-07,0.00047472209365999,7.21524e-09,0,524143992298.44,8.0258479415571e-06,524143992298.43,0.0014516569903794,524139785632.22,9096803917152.1,0.00014232212748677,9096803918447.6,0.0045616378107463,9095509424900.2,845.00120219022,46.260892407131,46260892.407747
0.0075499999999999,6.0998169362427e-09,1.1371243878562e-06,0.00047472209365999,6.09981e-09,0,697054069284.35,9.2619000720606e-06,697054069284.34,0.0014516569903794,697047613299.01,8354787434431.5,0.00013806330760674,8354787435585.6,0.0045616378107463,8353634104076.5,897.68214919258,14.773266758152,14773266.758632
0.0075599999999999,1.8551357221154e-08,9.2829704114639e-07,0.00047472209365999,1.855134e-08,0,990978273190.59,3.0316842230323e-05,990978273190.59,0.0014516569903794,990948230769.42,8147389027450.2,0.00028474419508021,8147389029770.3,0.0045616378107463,8145069766115.8,889.71219710895,37.532683719236,37532683.719359
0.0075699999999999,3.5662843646946e-10,4.3841811953291e-06,0.00047472209365999,3.5663e-10,0,340947365384.88,1.6291262316014e-07,340947365384.84,0.0014516569903794,340947309840.26,5362284450889.3,1.2979163505213e-05,5362284450959.4,0.0045616378107463,5362214853826,871.9773535718,47.51982426887,47519824.268877
0.0075799999999999,8.2164568522751e-10,5.2513509272064e-06,0.00047472209365999,8.2165e-10,0,513532628483.02,8.127242343912e-07,513532628483,0.0014516569903794,513532211122.95,7951866185193.9,2.7676738280111e-05,7951866185414.7,0.0045616378107463,7951646109565.6,823.79794174718,44.491386754369,44491386.754361
0.0075899999999999,7.0112417438246e-11,3.4480648216325e-05,0.00047472209365999,7.011e-11,0,674709980859.71,2.1100853342882e-08,674709980859.59,0.0014516569903794,674709966622.75,5410716643071.6,1.6019463885284e-06,5410716643080.8,0.0045616378107463,5410707975407.5,811.74176933117,39.242754612522,39242754.612526
0.0075999999999999,2.4984554705047e-09,1.8129148914573e-06,0.00047472209365999,2.49846e-09,0,722519888225.24,3.177607037897e-06,722519888225.23,0.0014516569903794,722517592348.25,7183536740688.8,6.5398793687543e-05,7183536741159.3,0.0045616378107463,7183066976773.5,861.89469987914,46.902777382074,46902777.382073
0.0076099999999999,3.6884206669942e-08,4.5195360009805e-07,0.00047472209365999,3.688419e-08,0,648036490581.42,4.9126149065195e-05,648036490581.42,0.0014516569903794,648004656608.07,8615082534190.2,0.00045878347784932,8615082538141.7,0.0045616378107463,8611131889153.8,895.00474487093,48.15560212184,48155602.121846
0.0076199999999999,5.22287051555e-09,9.8710094858283e-08,0.00047472209365999,5.22287e-09,0,495225060195.95,5.4502033512552e-06,495225060195.95,0.0014516569903794,495222361133.38,8976862079631.1,0.00011246628651895,8976862080641.5,0.0045616378107463,8975852598821,842.47843624788,44.909747506071,44909747.50608
0.0076299999999999,1.3641839050385e-10,1.1798095194916e-05,0.00047472209365999,1.3642e-10,0,690182312562.66,1.2289790301322e-07,690182312562.58,0.0014516569903794,690182227740.72,5125616900154.5,5.2055128867913e-06,5125616900181.7,0.0045616378107463,5125590218828.6,851.63422081972,36.610049975495,36610049.97549
0.0076399999999999,7.4811333478509e-08,1.1158550210858e-06,0.00047472209365999,7.481125e-08,0,900070366667.37,0.00012489822987266,900070366667.37,0.0014516569903794,899957963510.77,9172610616487.2,0.00082964401943921,9172610624091.8,0.0045616378107463,9165006923305.2,937.2916222317,15.50044027373,15500440.273833
0.0076499999999999,1.0218856303063e-09,4.2760901349332e-06,0.00047472209365999,1.02189e-09,0,785034758139.23,1.3495144999454e-06,785034758139.21,0.0014516569903794,785033698724.87,5877190708415,3.3193286324076e-05,5877190708610.7,0.0045616378107463,5876995631616.3,874.94930898189,43.354694331853,43354694.332143
0.0076599999999999,6.4809090080666e-11,1.4039798387551e-05,0.00047472209365999,6.481e-11,0,659353098557.11,1.8770373337531e-08,659353098556.99,0.0014516569903794,659353086180.81,5498307675558.6,1.3921659214277e-06,5498307675566.8,0.0045616378107463,5498300021012.7,807.56950457899,38.171142327533,38171142.327523
0.0076699999999999,4.784820776044e-08,5.8017754606354e-07,0.00047472209365999,4.784818e-08,0,756274121554.91,6.9759732171934e-05,756274121554.91,0.0014516569903794,756221367754.83,8584251148629.2,0.00056754330034385,8584251153499.2,0.0045616378107463,8579381977866.6,914.58523668238,35.171276725782,35171276.725788
0.0076799999999999,3.5421857208333e-09,1.2080567863665e-06,0.00047472209365999,3.54219e-09,0,332204374114.95,1.8025995223119e-06,332204374114.94,0.0014516569903794,332203775284.58,7053740988395.5,9.2840747290186e-05,7053740989051,0.0045616378107463,7053086174604.3,924.69051614439,17.240884504848,17240884.504907
0.0076899999999999,1.3451534859362e-08,1.8480722230657e-06,0.00047472209365999,1.345151e-08,0,996390070168.41,2.4397425933192e-05,996390070168.41,0.0014516569903794,996365761408.54,9284060791946.5,0.00024451770582663,9284060794217,0.0045616378107463,9281791229649.1,885.77073782173,14.070181172821,14070181.172807
0.0076999999999999,3.2475383249362e-08,7.1590774378012e-07,0.00047472209365999,3.247536e-08,0,985427185384.89,5.5662233095157e-05,985427185384.89,0.0014516569903794,985372337360.17,8292851367125.8,0.00045608408000397,8292851370907.1,0.0045616378107463,8289070853871.3,943.93766053953,11.112713400328,11112713.40033
0.0077099999999999,8.962382297803e-10,1.9751625715504e-06,0.00047472209365999,8.9624e-10,0,948461033846.36,1.3192805095744e-06,948461033846.33,0.0014516569903794,948459782561.85,6113232465204.1,3.0912656245287e-05,6113232465393.7,0.0045616378107463,6113043494791.9,867.31007337712,37.310140885599,37310140.885852
0.0077199999999999,5.5418862160832e-11,2.0531201161022e-05,0.00047472209365999,5.542e-11,0,421801219090.04,3.5580772385275e-08,421801219089.97,0.0014516569903794,421801204082.02,7028974756989.7,3.4456732566771e-06,7028974757014.6,0.0045616378107463,7028950537522.8,828.88108086965,11.302357570387,11302357.570605
0.0077299999999999,1.5020219151823e-08,5.6469019772604e-08,0.00047472209365999,1.502022e-08,0,392477302937.91,1.2896564560083e-05,392477302937.9,0.0014516569903794,392472241394.31,8527847919338.8,0.0002603237905521,8527847921559,0.0045616378107463,8525628495412,917.68692922049,19.945649718657,19945649.718667
0.0077399999999999,2.1902426373082e-09,3.3615759682805e-06,0.00047472209365999,2.19025e-09,0,681882951143.96,2.9583635123008e-06,681882951143.95,0.0014516569903794,681880933892.28,5518045301204.5,6.2170826022805e-05,5518045301548.1,0.0045616378107463,5517702261097.2,923.62844164388,29.850597367296,29850597.367288
0.0077499999999999,1.3141628603657e-09,2.1765733940348e-06,0.00047472209365999,1.31416e-09,0,955539973902.12,2.2251037330226e-06,955539973902.1,0.0014516569903794,955537847731.29,8743847447108.1,4.5615117667689e-05,8743847447507.8,0.0045616378107463,8743448613670.8,855.01652139711,8.3281270027453,8328127.0028409
0.0077599999999999,1.478623214573e-08,5.3118780856415e-07,0.00047472209365999,1.478624e-08,0,849456435083.74,2.2766244380066e-05,849456435083.73,0.0014516569903794,849437096591.21,6362560028724.9,0.00024599397567433,6362560030290.3,0.0045616378107463,6360995262211.1,942.06271615243,30.588091004663,30588091.004763
0.0077699999999999,4.6321748872111e-09,1.1037543555788e-06,0.00047472209365999,4.63218e-09,0,854488683442.42,6.8951082025278e-06,854488683442.41,0.0014516569903794,854482791691.11,5920656572983.1,0.00010522871161146,5920656573606.6,0.0045616378107463,5920033615473,921.80169741068,32.127441563709,32127441.563717
0.0077799999999999,2.8713660394402e-09,1.3793275577582e-06,0.00047472209365999,2.87137e-09,0,347323283143.12,1.7770408429436e-06,347323283143.11,0.0014516569903794,347322665936.55,7584032618037.2,8.056202364788e-05,7584032618648.8,0.0045616378107463,7583421682240.3,939.74150283484,5.0035196028397,5003519.6031222
0.0077899999999999,4.9046315478777e-11,7.5117660007832e-05,0.00047472209365999,4.905e-11,0,309311906919.43,9.2179064349529e-09,309311906919.37,0.0014516569903794,309311904068.22,5985435436382.9,2.1647760436598e-06,5985435436396.4,0.0045616378107463,5985422479283.7,837.87868885714,18.049296483592,18049296.483612
0.0077999999999999,2.5342715930723e-08,1.4177949245821e-06,0.00047472209365999,2.534268e-08,0,823295801302.17,3.8797212219092e-05,823295801302.17,0.0014516569903794,823263860959.44,9456404634454.7,0.00036390580321691,9456404637895.6,0.0045616378107463,9452964645762.5,873.3901454814,34.281958062571,34281958.062628
0.0078099999999999,8.2030571123087e-10,5.2282297288393e-06,0.00047472209365999,8.2031e-10,0,409398492410.65,6.8454153467192e-07,409398492410.63,0.0014516569903794,409398212160.57,7304556566645.3,3.0834104231699e-05,7304556566871.2,0.0045616378107463,7304331344131.3,865.57919911444,27.355667165529,27355667.165534
0.0078199999999998,3.5203725857644e-09,7.3451495023748e-07,0.00047472209365999,3.52037e-09,0,750915833248.26,5.3753999549145e-06,750915833248.25,0.0014516569903794,750911796797.02,9119939593414.9,9.2885463857426e-05,9119939594262.8,0.0045616378107463,9119092562272.3,878.40269571505,7.9450061142403,7945006.114304
0.0078299999999998,6.59364801246e-09,3.014324375919e-07,0.00047472209365999,6.59365e-09,0,931661603656.19,9.9527547247038e-06,931661603656.19,0.0014516569903794,931652331149.05,7262843621901.8,0.00013426369703851,7262843622877.5,0.0045616378107463,7261868616573.9,884.36161491644,40.076101867136,40076101.867672
0.0078399999999998,7.6774023629865e-11,5.2411487105391e-05,0.00047472209365999,7.677e-11,0,485037741486.27,4.3192516265799e-08,485037741486.19,0.0014516569903794,485037720536.27,6868426830340.5,2.8915620274386e-06,6868426830361.1,0.0045616378107463,6868406969915.8,801.95150672067,31.073946619005,31073946.61898
0.0078499999999998,8.1253636808016e-10,4.4698351337902e-06,0.00047472209365999,8.1254e-10,0,940262955120.88,1.289341139714e-06,940262955120.85,0.0014516569903794,940261742802.73,6959452396662.6,3.202397806268e-05,6959452396886.2,0.0045616378107463,6959229534448.7,868.67786226458,18.398563294269,18398563.294278
0.0078599999999998,8.6003075772132e-11,3.5764792231497e-05,0.00047472209365999,8.6e-11,0,539048766289.8,8.5002805883075e-08,539048766289.72,0.0014516569903794,539048720469.15,7384429962017.8,5.3850085891727e-06,7384429962058.3,0.0045616378107463,7384390197013.2,827.64625237612,11.628916358878,11628916.358873
0.0078699999999998,6.2638087330732e-10,1.394213286276e-06,0.00047472209365999,6.2638e-10,0,559217018608.72,7.1499724241244e-07,559217018608.69,0.0014516569903794,559216618770.38,5795221111833.5,2.4708808673361e-05,5795221111977.3,0.0045616378107463,5795077922361.9,894.19593620718,26.349216247068,26349216.247103
0.0078799999999998,5.2420937512779e-10,1.19202648833e-06,0.00047472209365999,5.2421e-10,0,401913794166.7,4.4497658696955e-07,401913794166.67,0.0014516569903794,401913615324.55,7406942015752.9,2.4161832806682e-05,7406942015932.6,0.0045616378107463,7406763054782.3,905.76359111764,3.881348599237,3881348.5993633
0.0078899999999998,2.7644692175222e-09,2.830480316228e-07,0.00047472209365999,2.76447e-09,0,913380903811.07,3.9898354575763e-06,913380903811.06,0.0014516569903794,913377259586.09,6576802285217.9,7.0778770132432e-05,6576802285684,0.0045616378107463,6576336820185.8,877.34929544562,43.074742818829,43074742.820002
0.0078999999999998,8.4597314893213e-10,3.7222739958115e-06,0.00047472209365999,8.4597e-10,0,568392155786.6,1.0718529973827e-06,568392155786.59,0.0014516569903794,568391546554.42,7755847883682.6,3.3473812704138e-05,7755847883943,0.0045616378107463,7755588274573.3,892.44736996932,5.8836364165414,5883636.4175215
0.0079099999999998,1.1601111987044e-07,6.8847273818781e-07,0.00047472209365999,1.1601104e-07,0,388693702248.89,9.2049315469872e-05,388693702248.89,0.0014516569903794,388657926552.8,9538750660009.6,0.0011038821009819,9538750670528.6,0.0045616378107463,9528232614572.3,934.64262480729,29.286621041337,29286621.041485
0.0079199999999998,1.8537360055031e-10,1.9423586931231e-05,0.00047472209365999,1.8537e-10,0,437812894324.76,9.4586991028379e-08,437812894324.7,0.0014516569903794,437812852913.36,6322476326308.6,6.573681956744e-06,6322476326350.8,0.0045616378107463,6322434764633.3,822.27520576873,48.999443447707,48999443.447812
0.0079299999999998,1.297110529738e-09,4.0839868120257e-07,0.00047472209365999,1.29711e-09,0,496621833581.2,1.3034681586675e-06,496621833581.18,0.0014516569903794,496621186251.29,6151748834638.3,4.1581787542107e-05,6151748834894.7,0.0045616378107463,6151493044561.5,896.0095286984,33.066933298042,33066933.298088
0.0079399999999998,1.3108101007376e-08,8.3973912466724e-07,0.00047472209365999,1.310809e-08,0,651491320716.09,1.9790163754051e-05,651491320716.09,0.0014516569903794,651478427851.32,8908604846133.2,0.00023843660551985,8908604848257.7,0.0045616378107463,8906481214985.2,901.55333781383,16.624517571206,16624517.571228
0.0079499999999998,6.1418040008259e-10,6.5140934249857e-07,0.00047472209365999,6.1418e-10,0,453665609552.31,6.1534920744695e-07,453665609552.29,0.0014516569903794,453665330389.71,9447653677873.7,2.6356678601032e-05,9447653678123.7,0.0045616378107463,9447404675665.1,835.06255514736,7.0414592055036,7041459.205527
0.0079599999999998,4.1033518015177e-10,1.2624355439392e-05,0.00047472209365999,4.1033e-10,0,612715847558.64,5.7388352816497e-07,612715847558.6,0.0014516569903794,612715495931.31,9317728603383.1,2.0642718740795e-05,9317728603576.4,0.0045616378107463,9317536264102.6,848.35040456253,2.8498501979277,2849850.1979302
0.0079699999999998,1.2663144020201e-11,0.00024834282787225,0.00047472209365999,1.266e-11,0,793761729784.78,1.1987399431045e-08,793761729784.63,0.0014516569903794,793761720269.64,5651832613311.3,1.2855745854877e-06,5651832613319.2,0.0045616378107463,5651825347468.3,857.19461792436,2.2051185468867,2205118.5468998
0.0079799999999998,1.4060548222438e-07,5.8478823157745e-07,0.00047472209365999,1.406054e-07,0,836662217114.3,0.00020008268514764,836662217114.3,0.0014516569903794,836494848978.81,8440531652477.2,0.0012275965903991,8440531662826.9,0.0045616378107463,8430182788829.2,948.56621422644,32.426194924085,32426194.924505
0.0079899999999998,2.6705997411181e-10,9.6937725666174e-08,0.00047472209365999,2.6706e-10,0,351760841668.59,1.2764275142316e-07,351760841668.55,0.0014516569903794,351760796768.88,6539005794234.7,1.0512258059388e-05,6539005794304.1,0.0045616378107463,6538937055241,839.78992636846,41.731093377213,41731093.377229
0.0079999999999998,2.1801152909576e-09,2.1599922716088e-06,0.00047472209365999,2.18012e-09,0,902891347146,2.9897797973343e-06,902891347145.99,0.0014516569903794,902888647707.76,6786966747813.1,5.8798446083809e-05,6786966748212.8,0.0045616378107463,6786567708177.6,859.5734112671,49.328280270037,49328280.27006
0.0080099999999998,2.0498620718127e-09,3.8676536914676e-06,0.00047472209365999,2.04987e-09,0,490826135274.79,2.4283787115486e-06,490826135274.78,0.0014516569903794,490824943365.94,5896041148303.8,6.190329021162e-05,5896041148669.3,0.0045616378107463,5895676186549.8,949.53985545144,11.105139770828,11105139.771894
0.0080199999999998,2.9950043145487e-10,1.4405838583694e-06,0.00047472209365999,2.995e-10,0,472445763519.09,2.7654724221446e-07,472445763519.05,0.0014516569903794,472445632865.55,6415996780616.5,1.3135432693262e-05,6415996780701.5,0.0045616378107463,6415912504829.7,857.38636799808,29.894333304219,29894333.304289
0.0080299999999998,1.080215522902e-09,4.1446168092499e-06,0.00047472209365999,1.08022e-09,0,645057089121.22,1.3800735158295e-06,645057089121.2,0.0014516569903794,645056198896.24,6634670730001.6,3.830148051261e-05,6634670730256.4,0.0045616378107463,6634416622022.6,885.50519732086,24.143315793299,24143315.7933
0.0080399999999998,5.1265551637992e-09,1.0072659409882e-06,0.00047472209365999,5.12655e-09,0,618850728935.12,7.0803981838905e-06,618850728935.12,0.0014516569903794,618846347256.57,9374241308876.8,0.00012204147919391,9374241310021.7,0.0045616378107463,9373097402205.2,864.84361104652,16.129550116949,16129550.116966
0.0080499999999998,7.9997508075027e-10,6.3511760008697e-06,0.00047472209365999,7.9997e-10,0,724788818914.31,1.1057221379213e-06,724788818914.29,0.0014516569903794,724788017500.15,9117628654736.6,3.1064276376985e-05,9117628655020.7,0.0045616378107463,9117345430998.3,806.5378868226,23.11847978788,23118479.787881
0.0080599999999998,5.9011934809455e-11,3.2787823328506e-05,0.00047472209365999,5.901e-11,0,531532831548.19,3.0630536185534e-08,531532831548.09,0.0014516569903794,531532815267.05,5957380887339.6,2.5686817359359e-06,5957380887355.5,0.0045616378107463,5957365584763.4,831.54933961548,21.040593448584,21040593.448584
0.0080699999999998,1.4075176679553e-10,1.2552721360325e-05,0.00047472209365999,1.4075e-10,0,881842373901.37,2.0600978686475e-07,881842373901.28,0.0014516569903794,881842192233.24,7828501473640,7.8018728600381e-06,7828501473701.9,0.0045616378107463,7828440397143.3,802.92894198462,17.693285114051,17693285.114088
0.0080799999999998,6.2149674223188e-10,5.241782979883e-06,0.00047472209365999,6.215e-10,0,605557854176.35,7.0868601374692e-07,605557854176.32,0.0014516569903794,605557425026.27,8558538699287.9,2.2933262566082e-05,8558538699485,0.0045616378107463,8558342428573.9,800.31888532267,40.797707250935,40797707.251072
0.0080899999999998,4.730558427398e-11,9.3335997031092e-05,0.00047472209365999,4.731e-11,0,444929948164.6,1.1415521017706e-08,444929948164.52,0.0014516569903794,444929943085.49,5910303176769,1.5673359500867e-06,5910303176778.9,0.0045616378107463,5910293913352.9,821.07720167882,23.248698382567,23248698.382641
0.0080999999999998,6.3139183745283e-08,1.3263616762921e-06,0.00047472209365999,6.31391e-08,0,642421232772.05,8.1179677839426e-05,642421232772.05,0.0014516569903794,642369085456.64,9894887895918.1,0.00072264372338288,9894887903064.4,0.0045616378107463,9887742580803.6,913.26862793782,19.994865288196,19994865.288184
0.0081099999999998,5.03364096379e-08,7.8746044467102e-07,0.00047472209365999,5.033637e-08,0,348492109994.66,2.9176044074274e-05,348492109994.66,0.0014516569903794,348481942670.14,9721286633754.7,0.00058993881076096,9721286639487.2,0.0045616378107463,9715555050762.1,890.91863751559,42.915921515863,42915921.51601
0.0081199999999998,2.6032014507186e-08,5.5728281132704e-07,0.00047472209365999,2.6032e-08,0,729281470194.32,3.962624048278e-05,729281470194.32,0.0014516569903794,729252572656.5,8844037872079.2,0.00037759915447272,8844037875418.3,0.0045616378107463,8840699631373.4,902.57559442655,27.357695549631,27357695.549636
0.0081299999999998,7.290029364402e-10,4.028038688762e-06,0.00047472209365999,7.29e-10,0,932915575870.44,9.7418544992794e-07,932915575870.41,0.0014516569903794,932914667038.54,6179001402309.6,2.5088001072961e-05,6179001402465.2,0.0045616378107463,6178846387404.8,849.99637076131,46.644432691503,46644432.691542
0.0081399999999998,4.904064622985e-11,1.3177607058753e-05,0.00047472209365999,4.904e-11,0,386969384933.05,2.4900481774687e-08,386969384932.98,0.0014516569903794,386969375297.33,5734769689726.2,2.7344960538895e-06,5734769689742.5,0.0045616378107463,5734754008064,856.98558088238,12.276273704155,12276273.704847
0.0081499999999998,1.0699491436841e-08,8.0033259691421e-07,0.00047472209365999,1.06995e-08,0,897138985559.03,1.773925675091e-05,897138985559.02,0.0014516569903794,897123071262.53,6686983601313.8,0.00020659735374611,6686983602695.7,0.0045616378107463,6685602373555.2,943.67438596385,17.242689863215,17242689.863195
0.0081599999999998,2.444695903572e-08,3.6960519694175e-07,0.00047472209365999,2.444695e-08,0,837895451282.21,3.8919283255087e-05,837895451282.21,0.0014516569903794,837862842260.92,7753793568691,0.00037921563344015,7753793571631,0.0045616378107463,7750854323559,946.05405873768,14.449692117373,14449692.117375
0.0081699999999998,1.0115544283195e-11,0.00044028822183425,0.00047472209365999,1.012e-11,0,424204733942.06,8.4504865991019e-09,424204733941.97,0.0014516569903794,424204730357.32,6208260332016.2,5.5599900818538e-07,6208260332020.2,0.0045616378107463,6208256880231.5,819.0667819973,4.8885532900861,4888553.2900844
0.0081799999999998,3.4237937942692e-10,1.8125272539091e-06,0.00047472209365999,3.4238e-10,0,380303490111.22,1.8840429447433e-07,380303490111.18,0.0014516569903794,380303418460.42,6255985305128.7,1.2695157396807e-05,6255985305208.7,0.0045616378107463,6255905885418.8,844.98559726449,48.328206587238,48328206.588994
0.0081899999999998,7.2433781495493e-08,1.1741076811102e-07,0.00047472209365999,7.243379e-08,0,332392052291.73,3.8632287000721e-05,332392052291.73,0.0014516569903794,332379211722.63,8402014075646,0.0007527500231251,8402014081966.7,0.0045616378107463,8395694216630.2,931.31618556313,45.486598871152,45486598.871146
0.0081999999999998,4.7370996456193e-08,5.5848957568618e-07,0.00047472209365999,4.737097e-08,0,810966127271.89,7.3129312496221e-05,810966127271.89,0.0014516569903794,810906826213.19,8450382020778.1,0.00058095651522021,8450382025685.4,0.0045616378107463,8445475566723.4,928.53758836517,25.619802955439,25619802.955531
0.0082099999999998,1.1865775711738e-09,2.046913147408e-06,0.00047472209365999,1.18658e-09,0,853063018281.94,1.7605158696736e-06,853063018281.92,0.0014516569903794,853061516453.6,6728536588551.8,4.0989088141207e-05,6728536588828.2,0.0045616378107463,6728260803276.7,877.00990018727,25.124814597031,25124815.822099
0.0082199999999998,8.1394312295717e-09,1.0775223281847e-06,0.00047472209365999,8.13944e-09,0,310900365591.04,3.2076986840446e-06,310900365591.03,0.0014516569903794,310899368319.54,7073142776229,0.00015585276983138,7073142777331.9,0.0045616378107463,7072040579116.4,921.24811577489,34.549880941942,34549880.941945
0.0082299999999998,2.8436045604663e-09,1.9128972159893e-06,0.00047472209365999,2.84361e-09,0,502510674475.72,3.1864802806861e-06,502510674475.72,0.0014516569903794,502509073240.47,6512409400928.7,7.9956966283418e-05,6512409401450,0.0045616378107463,6511888730061,941.66562310689,10.551234881083,10551234.881222
0.0082399999999998,1.8526128260852e-08,6.3365319811961e-07,0.00047472209365999,1.852614e-08,0,600215274188.37,2.2324641614093e-05,600215274188.37,0.0014516569903794,600201874896.62,7177911657497,0.00027797886446777,7177911659492.4,0.0045616378107463,7175916904264.4,924.94995177755,38.489323202426,38489323.202715
0.0082499999999998,5.0639044373289e-09,8.7626709229577e-07,0.00047472209365999,5.0639e-09,0,746865540832.47,7.4008535232405e-06,746865540832.47,0.0014516569903794,746860013430.91,9912410516205.9,0.00011738555160668,9912410517370.3,0.0045616378107463,9911247079000.4,803.66233171319,44.069800431887,44069800.431882
0.0082599999999998,8.9553376706904e-10,4.2065246731389e-06,0.00047472209365999,8.9553e-10,0,569507830299.45,1.0670592453026e-06,569507830299.43,0.0014516569903794,569507222601.5,7332681862607,3.2677640292618e-05,7332681862847.4,0.0045616378107463,7332442255696.5,860.14465632831,28.446382231218,28446382.231231
0.0082699999999998,4.6248051000681e-09,1.0594882687751e-06,0.00047472209365999,4.62481e-09,0,656924389556.24,6.0917333951315e-06,656924389556.24,0.0014516569903794,656920387772.38,6994786511855.1,0.00011164670288449,6994786512636.6,0.0045616378107463,6994005654183.8,922.70321307313,16.655757031995,16655757.032013
0.0082799999999998,7.6589500096932e-09,1.2656002154412e-09,0.00047472209365999,7.65895e-09,0,668474528365.94,1.082090386638e-05,668474528365.94,0.0014516569903794,668467294945.61,8224097441771.2,0.00015659119056027,8224097443059.6,0.0045616378107463,8222809822191.3,887.2000283955,28.229916201065,28229916.201069
0.0082899999999998,3.7970967562128e-10,8.5428015653761e-07,0.00047472209365999,3.7971e-10,0,802168194937.97,5.5590250065155e-07,802168194937.93,0.0014516569903794,802167749010.91,6017442219535.8,1.7841830027774e-05,6017442219643.8,0.0045616378107463,6017334859270,879.52039764028,18.08853042879,18088530.428776
0.0082999999999998,7.916616958873e-11,4.8382105217939e-05,0.00047472209365999,7.917e-11,0,684872678121.31,7.488622785962e-08,684872678121.21,0.0014516569903794,684872626833.78,7129686913876.3,4.054441936793e-06,7129686913905.9,0.0045616378107463,7129658007091.8,807.99973681358,20.584173094827,20584173.09483
0.0083099999999998,3.4979914968881e-08,9.9968556938527e-07,0.00047472209365999,3.497988e-08,0,699396835450.29,4.8425558219991e-05,699396835450.29,0.0014516569903794,699362968408.15,9430750066746.7,0.00044707689341088,9430750070962.1,0.0045616378107463,9426535680459.1,874.76061586586,44.716486857718,44716486.857896
0.0083199999999998,3.8365180875347e-10,4.7145926483094e-06,0.00047472209365999,3.8365e-10,0,990131981287.59,5.0279998962862e-07,990131981287.54,0.0014516569903794,990131483449.49,5423605492400.5,1.4325827879092e-05,5423605492478.7,0.0045616378107463,5423527795874.8,852.5072738894,45.172494052656,45172495.092347
0.0083299999999998,7.4507724232158e-09,1.6673756472423e-06,0.00047472209365999,7.45076e-09,0,918635576208.07,1.1973982970073e-05,918635576208.06,0.0014516569903794,918624576613.03,8881055238262,0.00014784998463899,8881055239575.8,0.0045616378107463,8879742368489.2,848.60070982256,37.307298294572,37307298.294577
0.0083399999999998,1.3601236661968e-09,4.6567630783868e-06,0.00047472209365999,1.36013e-09,0,459305726012.62,1.3488098020981e-06,459305726012.6,0.0014516569903794,459305106497.39,5490417319394.6,4.5522446537822e-05,5490417319645.1,0.0045616378107463,5490167393542.9,932.85502423397,21.531710890193,21531710.890211
0.0083499999999998,1.08705263729e-10,4.3567942263858e-05,0.00047472209365999,1.0871e-10,0,404113149189.91,6.7970644377043e-08,404113149189.85,0.0014516569903794,404113121722.08,7354898792660.8,5.7921626405471e-06,7354898792704.1,0.0045616378107463,7354856192137.5,823.0183097843,19.615094489664,19615094.489665
0.0083599999999998,1.615990306659e-08,1.4273986155582e-06,0.00047472209365999,1.615988e-08,0,849254016219.39,2.3418750109865e-05,849254016219.39,0.0014516569903794,849234128217.56,9975280847089.4,0.00027788769562128,9975280849861.7,0.0045616378107463,9972509609374.5,909.02701022289,4.8179424869271,4817942.4869754
0.0083699999999998,2.7787543428216e-08,8.4312008925332e-07,0.00047472209365999,2.778752e-08,0,476671280684.82,3.0520206099653e-05,476671280684.82,0.0014516569903794,476656733023.09,9330541181208.2,0.00039198614220588,9330541184865.1,0.0045616378107463,9326885171471,895.34396658877,30.775056371852,30775056.372071
0.0083799999999998,2.2477780670544e-09,3.5889145300992e-06,0.00047472209365999,2.24777e-09,0,783520431283.48,3.512734843425e-06,783520431283.47,0.0014516569903794,783517678993.63,9682268377330.7,6.7200260144835e-05,9682268377982.3,0.0045616378107463,9681617770097.9,851.08988714843,7.0651654252475,7065165.4254154
0.0083899999999998,1.1812739050773e-09,5.1595919190333e-06,0.00047472209365999,1.18128e-09,0,326563495707.98,5.5599863909496e-07,326563495707.96,0.0014516569903794,326563314139.22,6067210016989.9,3.8361600130994e-05,6067210017223.2,0.0045616378107463,6066977278033.5,899.44213685878,35.167454861525,35167454.861844
0.0083999999999998,4.7723824386688e-10,3.6797693473963e-06,0.00047472209365999,4.7724e-10,0,707087794236.26,6.6347520031679e-07,707087794236.23,0.0014516569903794,707087325101.35,8546690691636.6,2.1749694076136e-05,8546690691823.4,0.0045616378107463,8546504807771.7,826.98293635761,14.740764685734,14740764.685802
0.0084099999999998,2.9319232208976e-07,1.0303478210405e-06,0.00047472209365999,2.9319202e-07,0,749525063514.87,0.00042295173250927,749525063514.87,0.0014516569903794,749208184615.18,9512336525330.8,0.0020728612088567,9512336545008.8,0.0045616378107463,9492659559560.9,937.06622259508,39.673175552638,39673175.552821
0.0084199999999998,2.296068606176e-08,2.0061183084267e-06,0.00047472209365999,2.296064e-08,0,926500396253.01,3.5419978547995e-05,926500396253,0.0014516569903794,926467580791.17,9779475566726.3,0.00035456363924161,9779475570193.5,0.0045616378107463,9776009349274.1,907.15037359279,7.6857918955069,7685791.8960369
0.0084299999999998,1.9537616671925e-10,1.9619616878938e-05,0.00047472209365999,1.9538e-10,0,411669872379.77,1.726463004158e-07,411669872379.73,0.0014516569903794,411669801306.51,8038758622370.6,1.1353289117009e-05,8038758622462.6,0.0045616378107463,8038667357056,845.8155169092,8.1656230741432,8165624.2253285
0.0084399999999998,1.0481502145623e-09,2.0470571831018e-07,0.00047472209365999,1.04815e-09,0,376526494622.58,7.4993680340348e-07,376526494622.56,0.0014516569903794,376526212251.72,7235234888413,3.8886788538128e-05,7235234888695.1,0.0045616378107463,7234953544304.4,916.86718160775,6.0314475099814,6031447.5099828
0.0084499999999998,1.4829175568965e-08,1.0498885440924e-06,0.00047472209365999,1.482916e-08,0,995604818111.21,2.5090843227196e-05,995604818111.21,0.0014516569903794,995579838173.57,8764599498468.6,0.0002449255907432,8764599500615.6,0.0045616378107463,8762453349405.6,870.88781647128,34.737438066004,34737438.066335
0.0084599999999998,3.5740602610687e-10,1.1118584054595e-05,0.00047472209365999,3.5741e-10,0,539934563684.13,3.6528951941049e-07,539934563684.09,0.0014516569903794,539934366451.77,5767318596392,1.4251567242774e-05,5767318596474.8,0.0045616378107463,5767236404234.6,867.55619378583,36.843737584315,36843737.584311
0.0084699999999998,6.0835381738761e-10,6.2749858051876e-06,0.00047472209365999,6.0835e-10,0,318950796367.56,3.1076740966499e-07,318950796367.54,0.0014516569903794,318950697248.08,7449254968647.8,2.6502093619774e-05,7449254968846,0.0045616378107463,7449057553027.2,879.38419126919,13.385168161905,13385168.162035
0.0084799999999998,6.0966004016574e-09,1.7061435000747e-06,0.00047472209365999,6.09659e-09,0,874192879892.01,9.5995527453342e-06,874192879892,0.0014516569903794,874184488111.9,9459104267158.3,0.00013247876020256,9459104268412.2,0.0045616378107463,9457851302743.5,835.27973073353,30.9951951142,30995195.114221
0.0084899999999998,2.3132445921354e-08,1.5528582432561e-06,0.00047472209365999,2.313241e-08,0,871988291701.16,3.5155575046003e-05,871988291701.16,0.0014516569903794,871957637529,9810140785683.6,0.00035362892524967,9810140789152.5,0.0045616378107463,9806672862498.9,934.96980303819,3.2944410258752,3294441.0261669
0.0084999999999998,5.0401113407495e-10,2.2501040675567e-06,0.00047472209365999,5.0401e-10,0,611786762602.06,6.2606404195095e-07,611786762602.03,0.0014516569903794,611786379584.61,7989867791576.5,2.1200316816606e-05,7989867791746.7,0.0045616378107463,7989698407439,831.32793653656,25.007555673134,25007555.67323
0.0085099999999998,8.8583129969895e-10,1.4672103572004e-06,0.00047472209365999,8.8583e-10,0,397201984498.94,7.609953656466e-07,397201984498.93,0.0014516569903794,397201682230.3,5567143276530.4,3.3307804853923e-05,5567143276716.4,0.0045616378107463,5566957853384.6,944.64620556979,9.8481088050635,9848108.8050792
0.0085199999999998,1.8941518443415e-07,1.2376750179214e-06,0.00047472209365999,1.8941495e-07,0,811390609499.25,0.00028073222964003,811390609499.25,0.0014516569903794,811162889932.56,9612636259058.2,0.0015044259539046,9612636273499,0.0045616378107463,9598196483158.3,910.67276222851,47.691753029806,47691753.030815
0.0085299999999998,4.0353958847507e-09,1.0197872182676e-06,0.00047472209365999,4.0354e-09,0,513342112690.93,4.7584274328706e-06,513342112690.92,0.0014516569903794,513339670001.36,8195459217662.5,0.00010107614121722,8195459218491.6,0.0045616378107463,8194630935988.8,884.88023015877,22.344881764241,22344881.764425
0.0085399999999998,2.3976509321334e-10,2.0464556301468e-05,0.00047472209365999,2.3977e-10,0,626302511120.28,2.8445836518155e-07,626302511120.23,0.0014516569903794,626302332963.34,8281780536015.5,1.1799423312855e-05,8281780536114,0.0045616378107463,8281682816934.2,804.97952184596,23.791531148542,23791531.148519
0.0085499999999998,7.2842200093367e-10,2.7469504874017e-06,0.00047472209365999,7.2842e-10,0,412715791327.37,6.2610753001548e-07,412715791327.35,0.0014516569903794,412715532923.06,9291558207022.7,3.0188376266403e-05,9291558207304.1,0.0045616378107463,9291277718435,838.05003984099,9.4474794630597,9447479.4630853
0.0085599999999998,2.9683419420714e-10,1.4129997425726e-05,0.00047472209365999,2.9683e-10,0,793233295001.22,4.407135553539e-07,793233295001.17,0.0014516569903794,793232945412.71,5539942098448.3,1.5065043541321e-05,5539942098532.3,0.0045616378107463,5539858640236.7,894.3062301274,13.826779576722,13826779.57671
0.0085699999999998,4.3373231596251e-11,7.451224928417e-05,0.00047472209365999,4.337e-11,0,300365071978.81,6.3536955951938e-09,300365071978.75,0.0014516569903794,300365070070.38,5282647776988.7,2.367308144985e-06,5282647777001.7,0.0045616378107463,5282635271363.2,870.49305551833,11.875960938696,11875960.938691
0.0085799999999998,3.4669212932513e-10,6.1418706335313e-06,0.00047472209365999,3.4669e-10,0,358462320925.44,2.0154924520174e-07,358462320925.4,0.0014516569903794,358462248677.64,8341175051259.3,1.4897492873241e-05,8341175051384.4,0.0045616378107463,8341050790514.6,810.62120552031,32.981582778409,32981582.778483
0.0085899999999998,6.2863918598987e-09,2.9586117093773e-07,0.00047472209365999,6.28639e-09,0,677106745391.9,8.3506394405915e-06,677106745391.89,0.0014516569903794,677101091164.82,7880076600124.9,0.00013046243730316,7880076601153.6,0.0045616378107463,7879048680230.4,876.17159087801,40.165773325407,40165773.325402
0.0085999999999998,2.9098339031725e-10,1.1651375525271e-05,0.00047472209365999,2.9098e-10,0,769434385801.32,3.7255910895142e-07,769434385801.27,0.0014516569903794,769434099141.64,7537185650534.3,1.2586872853033e-05,7537185650629.9,0.0045616378107463,7537090782130.9,814.35033459552,31.933930926325,31933930.926326
0.0086099999999998,3.0737332746922e-09,1.0653805482408e-06,0.00047472209365999,3.07373e-09,0,523120290635.74,3.6560147386663e-06,523120290635.73,0.0014516569903794,523118378107.23,9047091299642.2,8.5414488354505e-05,9047091300415.8,0.0045616378107463,9046318612966.4,901.77205459284,4.2070134803386,4207013.4806375
0.0086199999999998,6.6835432984032e-09,4.9351139707308e-07,0.00047472209365999,6.68354e-09,0,692000924305.24,9.0507468684662e-06,692000924305.24,0.0014516569903794,691994661236.73,7625952321890.2,0.00013877057315444,7625952322949,0.0045616378107463,7624894210950.3,891.56083065564,33.404199357575,33404199.357911
0.0086299999999998,3.6908466886299e-10,1.4444002839558e-05,0.00047472209365999,3.6909e-10,0,367454956171.05,2.6835830135915e-07,367454956171.02,0.0014516569903794,367454857561.48,5354124542463.4,1.8136610233042e-05,5354124542561,0.0045616378107463,5354027438554.5,927.42781998615,11.209151826168,11209151.826285
0.0086399999999998,8.1011306468229e-10,3.7830446311435e-06,0.00047472209365999,8.1011e-10,0,555972503440.78,1.0523082270556e-06,555972503440.76,0.0014516569903794,555971918386.95,9064015163256.6,3.453531211655e-05,9064015163570.5,0.0045616378107463,9063702145474.1,882.00619330963,2.1212196860557,2121219.6860484
0.0086499999999998,7.1598698917071e-10,4.2051275659728e-06,0.00047472209365999,7.1599e-10,0,780681283982.31,1.0454510076865e-06,780681283982.28,0.0014516569903794,780680467819.12,6878956427363.9,2.9094285811434e-05,6878956427564.8,0.0045616378107463,6878756294862.3,872.35473141906,18.912580821362,18912580.821405
0.0086599999999998,4.5119749642757e-09,1.1002457183921e-06,0.00047472209365999,4.51197e-09,0,830327457859.29,6.5353220384864e-06,830327457859.28,0.0014516569903794,830322031437.41,8360144829030.2,0.00010031704775557,8360144829869.6,0.0045616378107463,8359306248106.1,843.0739390519,45.870914580147,45870914.580403
0.0086699999999998,2.8021808448003e-09,3.0147966922663e-07,0.00047472209365999,2.80218e-09,0,982937908244.58,4.5638710463458e-06,982937908244.57,0.0014516569903794,982933422263.19,8616453607032.4,7.1971452113057e-05,8616453607653.3,0.0045616378107463,8615833512983.3,828.79517963613,36.554877993248,36554877.993252
0.0086799999999998,2.8521003705846e-09,1.2993394231047e-07,0.00047472209365999,2.8521e-09,0,761981239468.22,3.7851691845933e-06,761981239468.21,0.0014516569903794,761978355251.23,6388122364640.3,7.2257296946348e-05,6388122365102.5,0.0045616378107463,6387660809536.4,889.81735070622,41.372374651214,41372374.65122
0.0086899999999998,1.1847987438483e-09,1.0602225309977e-06,0.00047472209365999,1.1848e-09,0,862254931092.98,1.8847769193196e-06,862254931092.96,0.0014516569903794,862253305937.85,8143596118597.6,4.2476839594493e-05,8143596118944.3,0.0045616378107463,8143250219064.2,855.35838636066,15.069714696169,15069714.696393
0.0086999999999998,2.6010409025017e-09,3.4697725189518e-07,0.00047472209365999,2.60104e-09,0,450337259169.38,2.4040693937283e-06,450337259169.37,0.0014516569903794,450336176529.96,6924730895504.4,7.4276487463954e-05,6924730896019.4,0.0045616378107463,6924216589017.7,918.95345373507,15.729162757548,15729162.757546
0.0087099999999998,2.5222605308222e-10,1.5648090151258e-05,0.00047472209365999,2.5223e-10,0,910354559184.23,3.4069491055632e-07,910354559184.16,0.0014516569903794,910354249031.17,5224395006921.7,1.0621700259055e-05,5224395006977.7,0.0045616378107463,5224339515553.3,863.44720725284,33.988099491547,33988099.491602
0.0087199999999998,6.7921678459516e-12,0.00031927039050912,0.00047472209365999,6.79e-12,0,546828111834.73,7.668847751802e-09,546828111834.62,0.0014516569903794,546828107641.19,6143911972008.8,3.8335365539099e-07,6143911972011.8,0.0045616378107463,6143909616718.6,812.70132597756,3.4977714965463,3497771.4969819
0.0087299999999998,9.5864472848642e-09,7.5991340301579e-07,0.00047472209365999,9.58644e-09,0,586919081238.77,1.3179784001419e-05,586919081238.77,0.0014516569903794,586911345874.01,9186574734512.5,0.00018986976375753,9186574736257.3,0.0045616378107463,9184830812855.9,883.96351697311,18.728895207035,18728895.207046
0.0087399999999998,1.7587090322712e-09,5.5024923441429e-07,0.00047472209365999,1.75871e-09,0,689276173270.06,2.3405989710568e-06,689276173270.05,0.0014516569903794,689274559954.73,8917902265593.3,5.1664537372735e-05,8917902266054.9,0.0045616378107463,8917441550101,816.23495707605,38.151721914634,38151721.9147
0.0087499999999998,2.7609760198135e-08,3.6936716096159e-07,0.00047472209365999,2.760975e-08,0,976200954710.99,4.3520050802214e-05,976200954710.99,0.0014516569903794,976158472244.69,7708792925925.6,0.00037060422509689,7708792928782.2,0.0045616378107463,7705937073088,903.99080410504,43.734920473344,43734920.473348
0.0087599999999998,4.1492539220443e-10,1.1104994996169e-05,0.00047472209365999,4.1493e-10,0,505345770951.41,4.3508044991058e-07,505345770951.38,0.0014516569903794,505345551085.44,7574816827125.9,1.7982988190716e-05,7574816827262.9,0.0045616378107463,7574680611733.9,839.51881263314,26.387308883507,26387308.883553
0.0087699999999998,5.3720566063363e-10,8.0775979038539e-06,0.00047472209365999,5.3721e-10,0,768338462135.15,6.7829645167206e-07,768338462135.11,0.0014516569903794,768337940974.25,7459943048279.7,1.9778661192474e-05,7459943048428,0.0045616378107463,7459795503511.9,820.28668780345,41.898189642844,41898189.642857
0.0087799999999998,7.4667268911875e-11,3.6575440274999e-05,0.00047472209365999,7.467e-11,0,940067921236.02,9.6155060917131e-08,940067921235.9,0.0014516569903794,940067830843.74,5818405587752.2,4.515533758452e-06,5818405587779,0.0045616378107463,5818379314664,847.38671155811,12.770325394835,12770325.395197
0.0087899999999998,1.3726292461145e-10,2.1307092044747e-05,0.00047472209365999,1.3726e-10,0,593752157690.39,1.7687761815806e-07,593752157690.32,0.0014516569903794,593752052668.94,8960120595843.5,8.9033130883352e-06,8960120595924.2,0.0045616378107463,8960040821794.8,809.81585424699,6.4150609561183,6415060.9561075
0.0087999999999998,1.9174671487374e-07,7.0339579473258e-07,0.00047472209365999,1.9174658e-07,0,822329469913.91,0.00026886504668567,822329469913.91,0.0014516569903794,822108433691.5,8722817546775.8,0.0015041332215407,8722817559877.2,0.0045616378107463,8709716972127.8,939.40489567943,41.29484216283,41294842.163553
0.0088099999999998,1.7707150053805e-09,2.8206715342988e-06,0.00047472209365999,1.77072e-09,0,351456052728.28,1.0102838933739e-06,351456052728.27,0.0014516569903794,351455697658.25,6321186434773.4,5.282406475962e-05,6321186435107.9,0.0045616378107463,6320852541649.4,905.91190008724,31.74349118135,31743491.181357
0.0088199999999998,1.1456976378506e-10,2.0617520875655e-06,0.00047472209365999,1.1457e-10,0,969345014638.85,8.7204403822614e-08,969345014638.71,0.0014516569903794,969344930107.7,5055689907850.1,3.6559200506736e-06,5055689907869.1,0.0045616378107463,5055671424719.6,828.45675326665,42.3200607709,42320060.770904
0.0088299999999998,1.0925338799622e-09,3.551355322447e-06,0.00047472209365999,1.09253e-09,0,339377166134.09,6.3051643314276e-07,339377166134.08,0.0014516569903794,339376952151.35,7690358295549.3,3.845013981357e-05,7690358295845.7,0.0045616378107463,7690062611566.7,866.07565273316,26.481006927121,26481006.927134
0.0088399999999998,3.8047009242286e-10,2.4291759791497e-07,0.00047472209365999,3.8047e-10,0,429818125361.83,2.7384540461571e-07,429818125361.79,0.0014516569903794,429818007658.14,5679789034225.4,1.390341620693e-05,5679789034304.9,0.0045616378107463,5679710066852.4,862.26843980606,47.387361307645,47387361.307733
0.0088499999999998,1.0051216024008e-08,3.955730403623e-07,0.00047472209365999,1.005122e-08,0,894241144876.21,1.5005945855715e-05,894241144876.2,0.0014516569903794,894227726143.36,7253181755843.3,0.00018186226405409,7253181757162.8,0.0045616378107463,7251862915634.8,898.74614362738,37.957868492003,37957868.491994
0.0088599999999998,2.4222167324206e-08,1.1046879566296e-07,0.00047472209365999,2.422217e-08,0,840120576075.8,3.6427873466558e-05,840120576075.8,0.0014516569903794,840089973384.55,7026215648199.1,0.00035040750799196,7026215650661,0.0045616378107463,7023754471897.8,939.88226679776,29.141292367185,29141292.367191
0.0088699999999998,8.5167089731831e-10,1.0535985926646e-06,0.00047472209365999,8.5167e-10,0,947666372592.46,1.1199905601658e-06,947666372592.43,0.0014516569903794,947665311216.26,6481692290351.1,2.8271646480567e-05,6481692290535,0.0045616378107463,6481509047418.7,841.8853603762,49.979598834395,49979598.834495
0.0088799999999998,1.9457856027901e-08,2.0413852373292e-07,0.00047472209365999,1.945786e-08,0,951849254865.66,3.0927445041233e-05,951849254865.66,0.0014516569903794,951819817510.57,6558915696524.4,0.00028876276238014,6558915698418.5,0.0045616378107463,6557022272660,929.61937285874,39.127894384856,39127894.384844
0.0088899999999998,9.9170943005394e-09,4.3364932432034e-07,0.00047472209365999,9.91709e-09,0,433829376481.42,9.89839715561e-06,433829376481.42,0.0014516569903794,433825082308.46,9215863160632.7,0.0001951490943593,9215863162431.8,0.0045616378107463,9214065044184,911.29044721777,8.8605724713973,8860572.4718094
0.0088999999999998,2.0327610404749e-08,1.9911284902554e-08,0.00047472209365999,2.032761e-08,0,663575588182,2.8093370506603e-05,663575588182,0.0014516569903794,663556946630.84,8061178732601.5,0.00031107340989446,8061178735109.2,0.0045616378107463,8058671894056.2,914.53543589004,29.778884972733,29778884.97282
0.0089099999999998,5.097575732413e-09,8.3717900676946e-07,0.00047472209365999,5.09758e-09,0,960180168412.07,8.56012403509e-06,960180168412.06,0.0014516569903794,960171949221.09,5198785181199.9,0.00011659716019113,5198785181806.5,0.0045616378107463,5198179088280.1,947.22189743409,27.752368144608,27752368.144603
0.0089199999999998,9.2068137834333e-11,2.0225542163976e-05,0.00047472209365999,9.207e-11,0,578703171820.59,5.4639186657112e-08,578703171820.5,0.0014516569903794,578703140200.72,5648083267269.3,3.4252151848308e-06,5648083267289.2,0.0045616378107463,5648063921435,834.27199713312,32.264712623446,32264712.623451
0.0089299999999998,4.7851137226812e-09,1.311841455017e-06,0.00047472209365999,4.78512e-09,0,713296852982.91,6.4792894497634e-06,713296852982.91,0.0014516569903794,713292231356.08,6844734619518.7,0.00011226616916402,6844734620287.8,0.0045616378107463,6843966273643.3,917.01945907072,21.899660591324,21899660.591338
0.0089399999999998,1.3279355762985e-10,2.6791398799226e-05,0.00047472209365999,1.3279e-10,0,463005848649.29,1.4817673996735e-07,463005848649.24,0.0014516569903794,463005780042.6,5128823836721.5,8.5717072856912e-06,5128823836766,0.0045616378107463,5128779874321.7,923.03575431652,5.7584730702107,5758473.0702315
0.0089499999999998,1.006390559836e-10,9.3801311489656e-06,0.00047472209365999,1.0064e-10,0,527157415714.66,1.2638196117589e-07,527157415714.59,0.0014516569903794,527157349091.48,5042523504625.3,7.2899938475108e-06,5042523504662.6,0.0045616378107463,5042486744928,935.12770842367,2.6553152258979,2655315.2259021
0.0089599999999998,1.3002161014422e-10,1.2383819556765e-05,0.00047472209365999,1.3002e-10,0,736291059576.11,7.605906390315e-08,736291059576,0.0014516569903794,736291003574.5,5305197725429.2,3.9379226274536e-06,5305197725450.6,0.0045616378107463,5305176834053.3,825.03902520908,48.969122926215,48969122.928485
0.0089699999999998,1.6650842051177e-08,4.7738242802188e-07,0.00047472209365999,1.665085e-08,0,563268776412.9,1.9656635626295e-05,563268776412.9,0.0014516569903794,563257704661.44,7929027117507.3,0.00025833036326453,7929027119555.8,0.0045616378107463,7926979338055.3,896.06254921793,46.306473689254,46306473.689258
0.0089799999999998,6.8576655963502e-09,8.1607285416242e-07,0.00047472209365999,6.85766e-09,0,631880863256.89,9.1197125094708e-06,631880863256.89,0.0014516569903794,631875100737.63,9594140211267.3,0.00014271300650648,9594140212637.3,0.0045616378107463,9592771198048.9,837.42242939805,35.733032502747,35733032.502752
0.0089899999999998,1.5199748432467e-10,1.6550495561912e-05,0.00047472209365999,1.52e-10,0,488348555933.25,1.5698467572937e-07,488348555933.19,0.0014516569903794,488348479270.02,8674092278485.5,9.439444230719e-06,8674092278568.2,0.0045616378107463,8674010400648.1,817.64223033285,8.4188452779327,8418845.2782098
0.0089999999999998,1.5991351676693e-10,2.1992163892766e-05,0.00047472209365999,1.5991e-10,0,912289276482.2,1.5643814329812e-07,912289276482.1,0.0014516569903794,912289133765.38,6299522221886.1,6.2484969485835e-06,6299522221926.1,0.0045616378107463,6299482859586.7,812.56305113785,41.495799192024,41495799.192616
0.0090099999999998,1.6478963414436e-09,2.2201325566708e-06,0.00047472209365999,1.6479e-09,0,601338362164.61,2.0331053235697e-06,601338362164.6,0.0014516569903794,601337139582.88,7390490608850.6,5.0808444629967e-05,7390490609226.8,0.0045616378107463,7390115128595.3,868.47826470288,31.629113079883,31629113.079909
0.0090199999999998,2.7643186378236e-09,4.9277089672043e-07,0.00047472209365999,2.76432e-09,0,309889924610.53,1.150149520283e-06,309889924610.52,0.0014516569903794,309889568191.19,8768098131651.6,7.2454366041843e-05,8768098132287.7,0.0045616378107463,8767462890686.1,849.52911362029,35.545269973747,35545269.973742
0.0090299999999998,1.4478946986902e-10,3.6613784218964e-06,0.00047472209365999,1.4479e-10,0,677857793802.58,2.0148218596889e-07,677857793802.52,0.0014516569903794,677857657226.34,8640903194191.1,9.2118950587016e-06,8640903194271.6,0.0045616378107463,8640823595830.9,822.02241930451,5.6323286013196,5632328.6017364
0.0090399999999998,5.2833975059839e-08,2.8504089878446e-07,0.00047472209365999,5.283396e-08,0,944482991547.42,8.2284146647461e-05,944482991547.42,0.0014516569903794,944405281964.7,7702010181919.3,0.00059363321433899,7702010186489.5,0.0045616378107463,7697440725439.3,927.63126079309,39.091050982914,39091050.983537
0.0090499999999998,7.4768580048154e-10,5.6166572565399e-06,0.00047472209365999,7.4769e-10,0,995325580112.73,1.1970312472613e-06,995325580112.7,0.0014516569903794,995324388678.34,7331937519447.4,2.9091166048413e-05,7331937519661.4,0.0045616378107463,7331724231040.3,847.20689604293,23.704483364038,23704483.364059
0.0090599999999998,1.3475387760713e-10,2.8776305265497e-05,0.00047472209365999,1.3475e-10,0,721059044140.94,1.8683883217525e-07,721059044140.86,0.0014516569903794,721058909419.14,6488160037617.8,8.0288286114936e-06,6488160037670.6,0.0045616378107463,6488107945711.1,855.82490872255,11.916384280156,11916384.280158
0.0090699999999998,1.8501634128508e-09,1.8446246967064e-06,0.00047472209365999,1.85016e-09,0,494694472869.82,2.0289671249271e-06,494694472869.81,0.0014516569903794,494693469153.04,7982703661547,5.891673400358e-05,7982703662018.1,0.0045616378107463,7982233374426.6,912.10913224437,5.1484862749806,5148486.2749897
0.0090799999999998,7.7985070034735e-08,4.4540570075921e-10,0.00047472209365999,7.798507e-08,0,853204591797.03,0.00011192500731248,853204591797.03,0.0014516569903794,853109107553.93,7456478389116.7,0.00076810888127869,7456478394840.4,0.0045616378107463,7450755397723.5,935.67012297845,48.207371121031,48207371.122719
0.0090899999999998,5.5715992870304e-10,1.2796496194549e-07,0.00047472209365999,5.5716e-10,0,370072801436.79,3.7180831845463e-07,370072801436.76,0.0014516569903794,370072663840.69,5129405445278.2,2.0832367124038e-05,5129405445385.6,0.0045616378107463,5129298589846.9,903.10277751951,37.376182782204,37376182.782214
0.0090999999999998,8.9457060241064e-09,4.4444695439094e-07,0.00047472209365999,8.94571e-09,0,628726669011.29,1.2673351348968e-05,628726669011.29,0.0014516569903794,628718701038.29,8019080680015.1,0.00018177513037034,8019080681473.3,0.0045616378107463,8017623275499,921.43556775898,13.317261764404,13317261.764571
0.0091099999999998,2.6630881713202e-09,6.866759130849e-07,0.00047472209365999,2.66309e-09,0,688185781847.9,3.5007109716459e-06,688185781847.9,0.0014516569903794,688183372716.82,5709586250527.7,6.9826885280904e-05,5709586250926.9,0.0045616378107463,5709187595740.4,916.50963468477,34.675883560394,34675883.560513
0.0091199999999998,8.2519353627386e-09,6.4987688726293e-07,0.00047472209365999,8.25193e-09,0,750372644827.24,1.2162665186344e-05,750372644827.23,0.0014516569903794,750363518406.99,9388235744109.4,0.00016344957451197,9388235745644.6,0.0045616378107463,9386701491744.5,848.13685915012,32.982582240237,32982582.240228
0.0091299999999998,2.9191295979077e-08,1.5750979259679e-06,0.00047472209365999,2.919125e-08,0,791824860213.57,4.1068991902906e-05,791824860213.57,0.0014516569903794,791792342100.28,9881734514735.5,0.00040374058324966,9881734518724.6,0.0045616378107463,9877746467615.5,858.92072254874,40.751645633109,40751645.633123
0.0091399999999998,1.2648939861408e-11,8.3805422280969e-05,0.00047472209365999,1.265e-11,0,325357437013.59,5.107080042742e-09,325357437013.53,0.0014516569903794,325357435351.97,5390211606930.6,5.5607183333544e-07,5390211606934.2,0.0045616378107463,5390208609587.4,842.12467629854,6.5640520809594,6564052.0816335
0.0091499999999998,2.2629969838564e-08,4.3475834369995e-07,0.00047472209365999,2.262996e-08,0,415558247334.02,2.0565459686005e-05,415558247334.02,0.0014516569903794,415549701363.39,8931931028814,0.00033194566385658,8931931031778.9,0.0045616378107463,8928967096903.5,895.64536135705,35.997387334507,35997387.334891
0.0091599999999998,2.5824344953796e-08,1.9182663923994e-07,0.00047472209365999,2.582434e-08,0,447658289903.31,2.7747646876226e-05,447658289903.31,0.0014516569903794,447645868783.82,8700386911727.2,0.00038202612816653,8700386915050.5,0.0045616378107463,8697064405885.8,922.25400906752,22.420386492196,22420386.492206
0.0091699999999998,8.5791390859947e-09,2.4377684203238e-06,0.00047472209365999,8.57916e-09,0,485094974526.26,9.4384771389871e-06,485094974526.26,0.0014516569903794,485090396011.65,5819873037645.6,0.0001622421658314,5819873038590.2,0.0045616378107463,5818928962008,947.27411063973,37.694119690674,37694119.690682
0.0091799999999998,8.4952665718557e-09,1.580659412859e-06,0.00047472209365999,8.49528e-09,0,842722869636.56,1.2136114402821e-05,842722869636.56,0.0014516569903794,842712642379.52,5949793369168.4,0.00015567289126722,5949793370095.1,0.0045616378107463,5948867291797.4,917.90972915203,47.404665078691,47404665.0787
0.0091899999999998,1.481959430291e-08,9.6513601766409e-07,0.00047472209365999,1.481958e-08,0,975290416020.82,2.6336895122054e-05,975290416020.81,0.0014516569903794,975264730575.89,8845804464899.4,0.00025671139286646,8845804467170.5,0.0045616378107463,8843534228909.7,887.25120832532,21.738181069692,21738181.069908
0.0091999999999998,8.0678036584399e-09,7.8603240598794e-07,0.00047472209365999,8.06781e-09,0,888922969739.15,1.2796992543391e-05,888922969739.15,0.0014516569903794,888911594344.1,5484649679268.4,0.0001569088581335,5484649680129.4,0.0045616378107463,5483789224163,941.43764285547,36.753839880093,36753839.880126
0.0092099999999998,3.6147517254631e-09,4.77339526485e-07,0.00047472209365999,3.61475e-09,0,774951989704.6,5.2520902511153e-06,774951989704.6,0.0014516569903794,774947919608.19,7184172186392.9,9.3899945573906e-05,7184172187068.1,0.0045616378107463,7183497656353.9,905.90635999655,17.78342953982,17783429.539874
0.0092199999999998,8.3802870041977e-10,1.5507562195719e-06,0.00047472209365999,8.3803e-10,0,829200929243.49,1.1970917854496e-06,829200929243.47,0.0014516569903794,829199936615.06,6234212643388.3,3.0402220392041e-05,6234212643578.4,0.0045616378107463,6234023115243.6,874.59796370474,30.819339339681,30819339.339703
0.0092299999999998,3.3070683960206e-10,9.5564027204581e-06,0.00047472209365999,3.3071e-10,0,611661739427.16,3.9658584906241e-07,611661739427.12,0.0014516569903794,611661496850.86,8240137654913.6,1.5217650802695e-05,8240137655039.8,0.0045616378107463,8240012261284.4,814.04256363709,24.560046431113,24560046.431121
0.0092399999999998,1.789922777861e-09,4.0348722882814e-06,0.00047472209365999,1.78993e-09,0,517150259813.9,1.8796371259143e-06,517150259813.89,0.0014516569903794,517149287760.9,6576764047754.7,5.2998298897579e-05,6576764048103.9,0.0045616378107463,6576415508919.9,891.37571650082,33.66669753177,33666697.531772
0.0092499999999998,2.7648062323377e-09,1.3627201392157e-06,0.00047472209365999,2.76481e-09,0,440288275473.79,2.2855318028115e-06,440288275473.78,0.0014516569903794,440287269183.23,6952964291367.9,7.0036648272523e-05,6952964291855.6,0.0045616378107463,6952477363156.2,876.40825020281,49.661403612926,49661403.612972
0.0092599999999998,6.2274061418111e-10,9.862560858832e-07,0.00047472209365999,6.2274e-10,0,900769996834.85,9.7744549147754e-07,900769996834.82,0.0014516569903794,900769116382.14,9426094174189.3,2.7213548158495e-05,9426094174446.8,0.0045616378107463,9425837663702.1,804.51498785326,10.392698815507,10392698.816685
0.0092699999999998,1.3236430975664e-09,2.3401879771836e-06,0.00047472209365999,1.32364e-09,0,811232406648.72,1.9856428616715e-06,811232406648.7,0.0014516569903794,811230795834.08,7070014355473.8,4.7094947189689e-05,7070014355807.4,0.0045616378107463,7069681409201.2,932.94282143224,2.6768172223637,2676817.222379
0.0092799999999998,6.1627808625236e-10,3.1053216703263e-06,0.00047472209365999,6.1628e-10,0,582186270095.74,6.6953863850092e-07,582186270095.71,0.0014516569903794,582185880299.8,5328603208089.3,2.1553592193381e-05,5328603208204.7,0.0045616378107463,5328488360024.2,879.7645596271,46.81367784528,46813677.847166
0.0092899999999998,2.2698218135984e-09,7.9900539783681e-07,0.00047472209365999,2.26982e-09,0,902769944939.11,3.6673345734255e-06,902769944939.1,0.0014516569903794,902766634191.82,8878380912680.7,6.5547307102998e-05,8878380913263.5,0.0045616378107463,8877798996863.4,834.2467591048,24.227565158869,24227565.158997
0.0092999999999998,2.4280088282455e-08,7.5298197888108e-07,0.00047472209365999,2.428007e-08,0,957466600002.44,3.8427140982503e-05,957466600002.44,0.0014516569903794,957429808712.2,8280899438367,0.00034129300791057,8280899441193.1,0.0045616378107463,8278074189527.2,886.48686379922,44.400132629531,44400132.629617
0.0093099999999998,1.7799042470019e-09,2.3860901926071e-06,0.00047472209365999,1.7799e-09,0,393790576605.33,1.4999397578598e-06,393790576605.32,0.0014516569903794,393789985944.07,9788369798615.5,5.7103810033298e-05,9788369799175.4,0.0045616378107463,9787810877322.5,841.64690284394,10.945630162712,10945630.16334
0.0093199999999998,3.1709662533943e-09,1.9720823576148e-06,0.00047472209365999,3.17096e-09,0,659623562577.96,4.2497601058039e-06,659623562577.96,0.0014516569903794,659620759347.97,9680453666534.1,8.1959746350659e-05,9680453667328.4,0.0045616378107463,9679660324029.2,804.04526490529,41.2770376635,41277037.663911
0.0093299999999998,1.7592735329668e-08,3.0294719461998e-07,0.00047472209365999,1.759273e-08,0,806593162718.54,2.8410478699422e-05,806593162718.54,0.0014516569903794,806570247671.7,8330318708165.5,0.0002921535200941,8330318710599.4,0.0045616378107463,8327885687047.1,914.20924716124,19.459017327906,19459017.328019
0.0093399999999998,5.5677198795933e-10,3.5705216413142e-06,0.00047472209365999,5.5677e-10,0,882917502708.08,8.6383160337892e-07,882917502708.05,0.0014516569903794,882916740016.7,8352496382609.6,2.3509788940903e-05,8352496382806.8,0.0045616378107463,8352300021798.9,819.76832581313,20.307863562826,20307863.562826
0.0093499999999998,8.2064256111726e-11,5.1865850908065e-05,0.00047472209365999,8.206e-11,0,480345937502.11,4.4136975099796e-08,480345937502.03,0.0014516569903794,480345916301.1,6709050231975.4,3.245104651751e-06,6709050231997.8,0.0045616378107463,6709028460475.9,810.50223993832,29.793880861561,29793880.861566
0.0093599999999998,1.4857763264837e-11,0.00015052053588532,0.00047472209365999,1.486e-11,0,642288204920.65,8.9549893138359e-09,642288204920.52,0.0014516569903794,642288199168.96,5698535597267.8,5.8659402943724e-07,5698535597271.7,0.0045616378107463,5698532254542.8,817.21374190109,8.1961768001616,8196176.8002748
0.0093699999999998,3.3122586261231e-10,1.2490981164537e-05,0.00047472209365999,3.3123e-10,0,991360027373.82,5.0338657692133e-07,991360027373.77,0.0014516569903794,991359528336.74,6925861893483.9,1.5348093154874e-05,6925861893590.9,0.0045616378107463,6925755596341.9,838.34724728119,23.171431023066,23171431.023101
0.0093799999999998,1.139597811534e-08,1.6537940174511e-07,0.00047472209365999,1.139598e-08,0,333002173232.72,6.6169125428371e-06,333002173232.72,0.0014516569903794,332999969801.05,8687736774940.7,0.00021545541795559,8687736776813,0.0045616378107463,8685865358189.6,913.95070920981,16.531235229514,16531235.2295
0.0093899999999998,2.5448542961996e-11,5.7251002118251e-05,0.00047472209365999,2.545e-11,0,471463152893,1.5022726567728e-08,471463152892.91,0.0014516569903794,471463145810.34,6609455343605.7,1.5482610588834e-06,6609455343616.6,0.0045616378107463,6609445110459.2,823.16266854366,8.2819610074938,8281961.0075108
0.0093999999999998,7.0826520955521e-10,6.7635856265271e-06,0.00047472209365999,7.0827e-10,0,425930453982.28,6.5674995291899e-07,425930453982.26,0.0014516569903794,425930174252.66,7608352587608.7,2.9491626128453e-05,7608352587833.8,0.0045616378107463,7608128211536,891.87683088242,7.0697608831118,7069760.8831209
0.0094099999999998,4.0709399549425e-11,1.4749461427464e-05,0.00047472209365999,4.071e-11,0,629207105761.68,6.8091169290734e-09,629207105761.56,0.0014516569903794,629207101477.33,5016793531707.1,7.1925782917456e-07,5016793531711.2,0.0045616378107463,5016789923341.6,819.40574441373,26.535403140986,26535403.141044
0.0094199999999998,2.7345783407164e-09,6.0677821749388e-07,0.00047472209365999,2.73458e-09,0,651407661861.94,3.9969329117557e-06,651407661861.94,0.0014516569903794,651405058239.63,7934420032497.8,8.0004523662592e-05,7934420033133.3,0.0045616378107463,7933785293784.5,938.04918441634,2.432873688209,2432873.688378
0.0094299999999998,1.2894881109293e-09,1.4649750429286e-06,0.00047472209365999,1.28949e-09,0,404958279904.95,1.0935814105891e-06,404958279904.94,0.0014516569903794,404957837050.59,7809620770478,4.526238818652e-05,7809620770832.2,0.0045616378107463,7809267304389.8,876.8260529259,18.061142283968,18061142.283998
0.0094399999999998,6.8848662295875e-08,1.0500705265893e-06,0.00047472209365999,6.884859e-08,0,762711467864.86,9.9935035351756e-05,762711467864.85,0.0014516569903794,762635253883.8,9330084775796.9,0.00072886647058252,9330084782593.3,0.0045616378107463,9323289342799.4,896.87050734062,42.482239402976,42482239.403152
0.0094499999999998,1.7075037893302e-09,3.6372670140229e-06,0.00047472209365999,1.70751e-09,0,550131478812.61,1.8639846062635e-06,550131478812.59,0.0014516569903794,550130453377.91,5951139014891.7,4.942692583332e-05,5951139015186.4,0.0045616378107463,5950844882923,897.75175448757,39.882347687903,39882347.687896
0.0094599999999998,1.3724805705017e-07,9.9855918013323e-07,0.00047472209365999,1.3724792e-07,0,507827560874.12,0.00014554007273,507827560874.12,0.0014516569903794,507753662369.17,9927862397019.5,0.0012197920863389,9927862409115.7,0.0045616378107463,9915767222631.4,949.9457586902,14.186588751378,14186588.751597
0.0094699999999998,2.7397448078124e-07,1.0613453822174e-06,0.00047472209365999,2.7397419e-07,0,935307478008.45,0.00041595816007758,935307478008.44,0.0014516569903794,934918590991.51,8990665630835.7,0.0019293474409905,8990665648149.3,0.0045616378107463,8973352915351.3,930.46109610404,48.858389255298,48858389.256024
0.0094799999999998,9.6842465733699e-08,1.091812497719e-06,0.00047472209365999,9.684236e-08,0,525014353446.83,0.00010228189672685,525014353446.83,0.0014516569903794,524960659474.88,9978651145538.6,0.00095414134630893,9978651155051.6,0.0045616378107463,9969139177662.1,909.23304332455,32.400289821677,32400289.821717
0.0094899999999998,2.4795233351496e-07,1.4257396035341e-06,0.00047472209365999,2.4795198e-07,0,836565416140.39,0.0003877478787583,836565416140.39,0.0014516569903794,836241165402.38,9814103085024.8,0.0018481678609881,9814103103130.4,0.0045616378107463,9795998435549.9,931.50001634676,32.178238077008,32178238.323531
0.0094999999999998,2.496694885417e-09,1.95675756459e-06,0.00047472209365999,2.49669e-09,0,777729728603.97,3.839395746745e-06,777729728603.96,0.0014516569903794,777726742603.22,9521743853003.3,7.2645619812899e-05,9521743853695.9,0.0045616378107463,9521052190265.7,831.87887025842,17.305292764281,17305292.764293
0.0095099999999998,3.597396677064e-10,9.2370490262043e-07,0.00047472209365999,3.5974e-10,0,940032517642.68,5.7662754514453e-07,940032517642.63,0.0014516569903794,940031975594.35,7791335926901.3,1.7314343383153e-05,7791335927036.9,0.0045616378107463,7791201027371.3,831.20913105774,15.321470838582,15321470.838584
0.0095199999999998,1.9536224258931e-09,1.2417425801982e-06,0.00047472209365999,1.95362e-09,0,861705847888.87,2.9715645521907e-06,861705847888.86,0.0014516569903794,861703287281.93,7216748639386.5,5.9699893310482e-05,7216748639818,0.0045616378107463,7216317825982.2,879.26905208338,23.064602182638,23064602.182651
0.0095299999999998,8.1897210387491e-09,1.3478803399603e-06,0.00047472209365999,8.18971e-09,0,785618379370.51,1.2632092610833e-05,785618379370.51,0.0014516569903794,785608455491.74,9050837039476.7,0.00016395829671361,9050837040961.3,0.0045616378107463,9049353322919.5,862.17500622597,28.59362862791,28593628.627908
0.0095399999999998,5.2135419027016e-10,1.1143413070229e-05,0.00047472209365999,5.2136e-10,0,356738417050.96,3.623744489532e-07,356738417050.93,0.0014516569903794,356738287778.12,5239772232973.6,2.3134539353541e-05,5239772233095.4,0.0045616378107463,5239651016061,934.68736383542,13.61569895647,13615698.956476
0.0095499999999998,1.6370357299138e-08,4.4587550309422e-07,0.00047472209365999,1.637035e-08,0,760227142598.09,2.2858860562955e-05,760227142598.09,0.0014516569903794,760209765069.07,8105269557568.9,0.0002551676248221,8105269559637.3,0.0045616378107463,8103201882791,883.03379342616,47.99903828127,47999038.28196
0.0095599999999998,1.5667364117913e-08,3.7543548172736e-07,0.00047472209365999,1.566737e-08,0,382110071969.26,1.2536677189477e-05,382110071969.26,0.0014516569903794,382105281638.69,7864316761356.8,0.00027521241794564,7864316763521.4,0.0045616378107463,7862152999219.6,943.35030344781,15.972579831002,15972579.831519
0.0095699999999998,6.7166786576414e-10,3.177506599033e-06,0.00047472209365999,6.7167e-10,0,744561764852.63,8.1878045157477e-07,744561764852.6,0.0014516569903794,744561155220.52,7271480833814.8,2.3380679245371e-05,7271480833985.6,0.0045616378107463,7271310825628.7,826.97292192497,46.131949020674,46131949.021089
0.0095799999999998,2.0356364226064e-09,1.7573802614224e-06,0.00047472209365999,2.03564e-09,0,303493661235.17,7.4463634003757e-07,303493661235.16,0.0014516569903794,303493435242.93,7142123311282,5.6185806503863e-05,7142123311684,0.0045616378107463,7141722047869,873.36308430823,45.595110791222,45595112.23221
0.0095899999999998,2.7724012745328e-09,3.147249931878e-06,0.00047472209365999,2.77241e-09,0,555478307379.99,3.0191536557249e-06,555478307379.98,0.0014516569903794,555476630310.69,6115939299947.5,6.9843070916035e-05,6115939300375.2,0.0045616378107463,6115512173797,900.02597076229,44.074439136417,44074439.136417
0.0095999999999998,9.5647086165289e-09,1.1901520515067e-06,0.00047472209365999,9.56472e-09,0,363983065341.27,5.5696267395933e-06,363983065341.27,0.0014516569903794,363981038102.75,6367409201438.9,0.00016898899028803,6367409202515.4,0.0045616378107463,6366333361192.4,927.28388373601,46.626209004658,46626209.004669
0.0096099999999998,4.8495426648656e-10,1.1822652267488e-05,0.00047472209365999,4.8496e-10,0,544377551859.59,6.3190544180436e-07,544377551859.56,0.0014516569903794,544377207864.66,5572147181067.1,2.1897200853283e-05,5572147181189.7,0.0045616378107463,5572025169312.8,946.90891693029,4.1622304550324,4162230.4566591
0.0096199999999998,5.0736363273518e-09,7.238685088466e-07,0.00047472209365999,5.07364e-09,0,875801576895.38,7.7092036560067e-06,875801576895.37,0.0014516569903794,875794825214.71,6019026713290.9,0.00011376554382375,6019026713976.2,0.0045616378107463,6018342033336.6,924.44591207895,29.240492204379,29240492.204555
0.0096299999999998,9.8471612849709e-10,3.9315774136144e-06,0.00047472209365999,9.8472e-10,0,649875461669.78,1.2885152691897e-06,649875461669.76,0.0014516569903794,649874624296.4,6865296969281.7,3.7164725495369e-05,6865296969537.5,0.0045616378107463,6865041831886.5,909.51682360597,7.5720258164161,7572025.8165374
0.0096399999999998,2.0002020381586e-11,0.00010101907927624,0.00047472209365999,2e-11,0,871824082882.19,2.5493528551276e-08,871824082882.03,0.0014516569903794,871824060656.32,5190483613987.7,1.5785796008146e-06,5190483613996.4,0.0045616378107463,5190475420409,861.09449216565,4.4433368906401,4443336.8906407
0.0096499999999998,3.7683305375837e-08,9.3876770279188e-07,0.00047472209365999,3.768327e-08,0,681968784389.78,5.3381716922337e-05,681968784389.78,0.0014516569903794,681932381668.42,9484795438934,0.00048683298955398,9484795443550.2,0.0045616378107463,9480180174478.1,893.59960954526,30.158815071974,30158815.072189
0.0096599999999998,2.9031241785184e-11,4.2775927795129e-05,0.00047472209365999,2.903e-11,0,969078151217.15,3.4796792510168e-08,969078151216.99,0.0014516569903794,969078117496.34,6793811209236.4,1.8437687128395e-06,6793811209249.6,0.0045616378107463,6793798683043,802.64354078861,9.2415417449783,9241541.745082
0.0096699999999998,7.6751223761154e-09,3.0958674655751e-07,0.00047472209365999,7.67512e-09,0,668603360015.06,1.0272463696632e-05,668603360015.05,0.0014516569903794,668596491881.86,7576522746306.8,0.00015435867270737,7576522747476.8,0.0045616378107463,7575353424806.8,900.74021784644,30.353412471033,30353412.471122
0.0096799999999998,1.6476133116768e-09,2.0099883035147e-06,0.00047472209365999,1.64761e-09,0,429379606749.35,1.4751221661449e-06,429379606749.34,0.0014516569903794,429378973362.9,9049238492084.9,5.2004856204838e-05,9049238492556.3,0.0045616378107463,9048767912210.8,836.43684534133,25.709617847692,25709617.847704
0.0096899999999998,1.3959648132901e-10,2.5205379574477e-05,0.00047472209365999,1.396e-10,0,384737006402.71,9.1886502953242e-08,384737006402.66,0.0014516569903794,384736971050.58,5509173364528.8,7.2948043644702e-06,5509173364569.5,0.0045616378107463,5509133176480,881.37300794388,18.581667933965,18581667.933958
0.0096999999999998,7.7082374376699e-11,3.0804056805673e-05,0.00047472209365999,7.708e-11,0,342466190315.66,2.6478028968389e-08,342466190315.6,0.0014516569903794,342466181247.83,5287833373269.2,3.4430532213766e-06,5287833373288,0.0045616378107463,5287815167040.2,865.47849964083,21.355137394868,21355137.394869
0.0097099999999998,7.5126899923925e-11,4.1262825442006e-05,0.00047472209365999,7.513e-11,0,410487139695.88,4.7381095404544e-08,410487139695.81,0.0014516569903794,410487120246.55,6054568422311.3,4.0975465370054e-06,6054568422336.7,0.0045616378107463,6054543613537,852.60263142448,15.71728639721,15717286.397204
0.0097199999999998,6.825158131958e-08,6.0540143281511e-07,0.00047472209365999,6.825154e-08,0,438514738871.29,6.5428415412209e-05,438514738871.29,0.0014516569903794,438486049423.89,9292619441396.3,0.00072392189973823,9292619448119.5,0.0045616378107463,9285897177071.1,906.77440565581,43.319195386233,43319195.38652
0.0097299999999998,6.353636366918e-11,5.7229002523929e-05,0.00047472209365999,6.354e-11,0,735545212990.26,1.8947414221943e-08,735545212990.13,0.0014516569903794,735545199053.58,5084134608762.3,1.0260758239218e-06,5084134608768,0.0045616378107463,5084129392060,807.90564020461,40.08424163592,40084241.635921
0.0097399999999998,1.5989360615028e-09,2.4631925848127e-06,0.00047472209365999,1.59894e-09,0,800259844195.16,2.2125065984073e-06,800259844195.15,0.0014516569903794,800258073618.89,8099693586592.5,4.6625394042701e-05,8099693586970.9,0.0045616378107463,8099315952794.7,827.87114601725,43.193246187929,43193246.187929
0.0097499999999998,4.7816707238479e-10,6.1225405345426e-06,0.00047472209365999,4.7817e-10,0,713461608760.26,6.9009960295797e-07,713461608760.23,0.0014516569903794,713461116401.03,6823233560733.7,2.2168888923392e-05,6823233560885.6,0.0045616378107463,6823082300580.1,884.42132299127,9.7310067602518,9731006.7608728
0.0097599999999998,2.129822769658e-11,8.3206733352887e-05,0.00047472209365999,2.13e-11,0,318256092109.39,9.6284901626019e-09,318256092109.33,0.0014516569903794,318256089045.07,6538380751892.5,1.4835512239945e-06,6538380751902.9,0.0045616378107463,6538371051884.1,835.85674591776,5.9235615252279,5923561.5252176
0.0097699999999998,8.155646242868e-09,7.6546634992409e-07,0.00047472209365999,8.15564e-09,0,712541310473.89,1.147462011444e-05,712541310473.89,0.0014516569903794,712533134426.85,9122364551838.2,0.00015691017133882,9122364553270.2,0.0045616378107463,9120933384618,845.89782015153,42.071263620999,42071263.62184
0.0097799999999998,1.3263438711271e-10,3.3077830888615e-05,0.00047472209365999,1.3263e-10,0,921150238444.19,1.7612066418081e-07,921150238444.09,0.0014516569903794,921150076210.63,6684644373205,7.1768581579351e-06,6684644373253.6,0.0045616378107463,6684596398804.8,829.51146535862,18.892618720958,18892618.721104
0.0097899999999998,5.695067558491e-09,4.2870570352357e-07,0.00047472209365999,5.69507e-09,0,458327117418.85,5.2945146331241e-06,458327117418.84,0.0014516569903794,458324690812.07,8461724905804,0.00011914883562793,8461724906812.9,0.0045616378107463,8460716821246.2,855.29216695798,49.086667909577,49086667.909981
0.0097999999999998,1.4332727463189e-09,1.9161211093473e-06,0.00047472209365999,1.43327e-09,0,963447241886.63,2.3271668476682e-06,963447241886.61,0.0014516569903794,963444999789.36,5428353156329.3,4.7682411827439e-05,5428353156588.6,0.0045616378107463,5428094331699.9,919.53616433923,19.820331594352,19820331.594714
0.0098099999999998,1.6468099839686e-08,1.2047358053144e-06,0.00047472209365999,1.646808e-08,0,615813615090.96,2.1784340081069e-05,615813615090.95,0.0014516569903794,615800200289.97,9707260997991.1,0.00027322157491412,9707261000643.5,0.0045616378107463,9704609489302.5,870.49538885903,27.167798636451,27167798.636446
0.0098199999999998,1.5404062797896e-10,4.0767265362696e-06,0.00047472209365999,1.5404e-10,0,497229057415.28,1.4484404536008e-07,497229057415.22,0.0014516569903794,497228985394.62,6411920874657.3,7.9120441983509e-06,6411920874708.7,0.0045616378107463,6411870143657.3,851.57713740169,20.982770249686,20982770.249701
0.0098299999999998,6.1137146811015e-12,0.00060796744705129,0.00060796744705129,6.11e-12,0,821657468514.86,1.1476381446648e-08,821657468514.7,0.0014516569903794,821657459085.2,6182795457997.8,3.46490215867e-07,6182795458000.5,0.0045616378107463,6182793315720.4,800.56006239338,3.2918915630466,3291891.563085
0.0098399999999998,4.6139172444295e-08,4.8644794486124e-07,0.00060796744705129,4.613915e-08,0,467653735177.55,5.08365920739e-05,467653735177.55,0.0014516569903794,467629962463.91,9183587487523.7,0.00059047706991978,9183587492944.1,0.0045616378107463,9178167989781.8,944.06976650894,12.539588949402,12539588.94941
0.0098499999999998,1.0317032417855e-09,3.1421784763367e-06,0.00060796744705129,1.0317e-09,0,567454409125.01,1.138282952432e-06,567454409124.99,0.0014516569903794,567453763202.06,8568727506171,3.3345209507277e-05,8568727506457.5,0.0045616378107463,8568441789684.3,809.75574741507,45.015188934177,45015188.934738
0.0098599999999998,5.1838008193747e-09,1.5806449307771e-07,0.00060796744705129,5.1838e-09,0,349939772329.44,3.1142913108315e-06,349939772329.44,0.0014516569903794,349938682518.45,8525781337042.3,0.00011347252847072,8525781338010.5,0.0045616378107463,8524814004842.4,867.10315927588,38.637939593214,38637939.593224
0.0098699999999998,2.2015346145097e-09,2.0960467026838e-06,0.00060796744705129,2.20153e-09,0,512789634460.72,2.4224720322888e-06,512789634460.72,0.0014516569903794,512788392245.18,9212106298247.7,6.2050677583032e-05,9212106298820.2,0.0045616378107463,9211534716277,824.26111241432,34.55719332642,34557193.326415
0.0098799999999998,5.2135123196568e-10,2.363029977986e-06,0.00060796744705129,5.2135e-10,0,927437767006.61,7.8408779702728e-07,927437767006.57,0.0014516569903794,927437039814.55,6313745909806.2,2.1643274337531e-05,6313745909943.5,0.0045616378107463,6313609262628.9,863.2768102355,26.384544163327,26384544.163329
0.0098899999999998,2.8294635846843e-09,2.2673206239207e-06,0.00060796744705129,2.82947e-09,0,593824646017.4,3.3714713387458e-06,593824646017.4,0.0014516569903794,593822643961.38,7003458879112.7,7.4339852561989e-05,7003458879634,0.0045616378107463,7002938281713.3,888.96390646906,33.726259945388,33726259.945383
0.0098999999999998,1.602613102839e-09,1.9361161082388e-06,0.00060796744705129,1.60261e-09,0,577192705737.07,1.9482666314902e-06,577192705737.06,0.0014516569903794,577191581213.98,7437267121947.4,5.0601607007596e-05,7437267122324.4,0.0045616378107463,7436890803321.6,871.59462367005,28.295916070882,28295916.070874
0.0099099999999998,8.2535588132659e-10,4.9901538806983e-06,0.00060796744705129,8.2536e-10,0,980793519575.32,1.3029292453258e-06,980793519575.29,0.0014516569903794,980792241672.42,7545037981197.5,3.0482046544552e-05,7545037981428.2,0.0045616378107463,7544808000008.8,839.11123517331,27.649953842244,27649953.842254
0.0099199999999998,2.8981023598999e-10,8.1429208840033e-07,0.00060796744705129,2.8981e-10,0,341665881253.33,1.4344135736447e-07,341665881253.29,0.0014516569903794,341665832244.32,8158845151633.8,1.2295785386702e-05,8158845151734.9,0.0045616378107463,8158744833458.3,807.01168281699,36.552500466756,36552500.466751
0.0099299999999998,2.2497440811797e-08,9.2507481220279e-07,0.00060796744705129,2.249742e-08,0,702933180751.86,3.1522528098045e-05,702933180751.86,0.0014516569903794,702911023219.38,9592628725946.6,0.00034493236834516,9592628729255.2,0.0045616378107463,9589321058723,940.5262174684,3.8650120113271,3865012.0118915
0.0099399999999998,5.5571057776734e-08,8.5974204839922e-07,0.00060796744705129,5.557101e-08,0,559421483824.34,6.948536433861e-05,559421483824.34,0.0014516569903794,559382614919.53,9618066286641.3,0.00066301891588158,9618066293015,0.0045616378107463,9611693552002.6,937.59545958731,11.390926040286,11390926.04028
0.0099499999999998,1.3992193408947e-10,1.3822823528669e-05,0.00060796744705129,1.3992e-10,0,851058639227.97,1.6663108265629e-07,851058639227.88,0.0014516569903794,851058497415.17,5888920303898.2,6.7575072460657e-06,5888920303938.6,0.0045616378107463,5888880509745.5,843.87950779342,25.055628463044,25055628.463058
0.0099599999999998,2.1005588900891e-11,0.00020995236118853,0.00060796744705129,2.101e-11,0,533732866130.37,7.2275970841948e-09,533732866130.27,0.0014516569903794,533732862272.76,5621340822194.6,5.960296536248e-07,5621340822198.5,0.0045616378107463,5621337471710.8,815.65885819427,12.748905761581,12748905.761581
0.0099699999999998,3.390013410905e-08,1.7377362846599e-07,0.00060796744705129,3.390014e-08,0,697333256871.19,4.5091366385581e-05,697333256871.19,0.0014516569903794,697301814579.59,7697299741052.5,0.00043193071778642,7697299744376.5,0.0045616378107463,7693976476270.5,924.92055511645,38.256153619517,38256153.619731
0.0099799999999998,3.3392431881148e-10,1.2933671180503e-05,0.00060796744705129,3.3392e-10,0,732877095217.87,4.787391247133e-07,732877095217.83,0.0014516569903794,732876744361.1,5782402920252.9,1.6871600242849e-05,5782402920351,0.0045616378107463,5782305363508.3,903.94983990511,9.1237420138249,9123742.0141895
0.0099899999999998,1.214356002192e-09,3.2921110995892e-06,0.00060796744705129,1.21436e-09,0,600240168880.48,1.582776329095e-06,600240168880.47,0.0014516569903794,600239218836.06,8406378754386.7,4.3528353075943e-05,8406378754753.4,0.0045616378107463,8406012854491.2,858.19278846225,14.866063251595,14866063.251582
0.0099999999999998,7.6714761821535e-10,0.00019246181922883,0.00060796744705129,7.67e-10,0,558819000000.02,1.7894914254895e-06,558819000000,0.0014516569903794,558818000000,7512169999764.1,2.6623222464243e-06,7512170000000,0.0045616378107463,7512150000000,882.7134887,10.01595709,10015957.090006
